p cnf 2287 2141
c Querying variable triglycerides with value a3_2
c p learn 1 3 8 9 11 12 13 14 15 16 17 18 19 20 21 22 23 24 25 26 27 28 37 38 47 48 49 50 51 52 71 72 85 86 87 88 89 90 91 92 93 94 95 96 97 98 99 100 101 102 103 104 105 106 107 108 109 110 111 112 113 114 115 116 117 118 119 120 121 122 123 124 125 126 127 128 129 130 131 132 133 134 135 136 137 138 139 140 141 142 143 144 145 146 147 148 149 150 151 152 153 154 155 223 224 229 230 231 235 236 237 238 239 240 241 242 243 244 245 246 247 248 249 250 251 252 253 254 255 256 257 258 259 260 261 262 263 264 265 266 267 268 269 270 271 272 273 274 275 276 294 295 296 297 298 299 304 305 306 307 308 309 310 311 312 313 314 315 316 317 318 319 600 601 602 603 604 605
c p distribution 0.7868648550387085 0.2131351449612915
c p distribution 0.1731044 0.8268956
c p distribution 0.6921722680887902 0.30782773191120993
c p distribution 0.2 0.8
c p distribution 0.08888889 0.91111111
c p distribution 0.00191939 0.99808061
c p distribution 0.0326087 0.9673913
c p distribution 0.28423616707866484 0.7157638329213352
c p distribution 0.818244958785718 0.18175504121428201
c p distribution 0.1530758 0.8469242
c p distribution 0.42700923371848554 0.5729907662815146
c p distribution 0.5973419691538102 0.4026580308461899
c p distribution 0.4155398806856348 0.5844601193143651
c p distribution 0.4805483979685355 0.5194516020314645
c p distribution 0.31540687301273057 0.6845931269872695
c p distribution 0.9684271187391739 0.031572881260826136
c p distribution 0.48407792436149466 0.5159220756385053
c p distribution 0.11442993379773532 0.8855700662022646
c p distribution 0.9472085784497308 0.05279142155026912
c p distribution 0.5418279125311539 0.458172087468846
c p distribution 0.5973820929204057 0.4026179070795944
c p distribution 0.7906507616361058 0.20934923836389416
c p distribution 0.432675325981392 0.567324674018608
c p distribution 0.2097375360990804 0.7902624639009195
c p distribution 0.12656616748207922 0.8734338325179208
c p distribution 0.1908704188156901 0.8091295811843099
c p distribution 0.7565556798341867 0.24344432016581324
c p distribution 0.38244852891305 0.6175514710869501
c p distribution 0.2094241 0.0052356 0.7853403
c p distribution 0.15384615 0.05128205 0.7948718
c p distribution 0.06 0.06 0.88
c p distribution 0.07692308 0.00591716 0.91715976
c p distribution 0.4615385 0.3076923 0.2307692
c p distribution 0.24 0.14 0.62
c p distribution 0.13043478 0.04347826 0.82608696
c p distribution 0.13095238 0.05357143 0.81547619
c p distribution 0.33364459695677173 0.6663554030432283
c p distribution 0.13766958096699441 0.3501278521097305 0.37259805247415767 0.13960451444911742
c p distribution 0.6571429 0.3428571
c p distribution 0.3684211 0.6315789
c p distribution 0.700565 0.299435
c p distribution 0.08510638 0.91489362
c p distribution 0.6149425 0.3850575
c p distribution 0.06730769 0.93269231
c p distribution 0.125 0.875
c p distribution 0.00156006 0.99843994
c p distribution 0.8947655846542728 0.10523441534572722
c p distribution 0.24622483693559563 0.7537751630644044
c p distribution 0.21420143383840043 0.7857985661615997
c p distribution 0.9403454085910855 0.05965459140891446
c p distribution 0.35175719650880277 0.6482428034911972
c p distribution 0.5466333124096999 0.4533666875903002
c p distribution 0.3636364 0.6363636
c p distribution 0.2380952 0.7619048
c p distribution 0.1891892 0.8108108
c p distribution 0.06349206 0.93650794
c p distribution 0.56 0.24 0.2
c p distribution 0.35 0.15 0.5
c p distribution 0.49 0.21 0.3
c p distribution 0.001 0.001 0.998
c p distribution 0.002849 0.997151
c p distribution 0.01129944 0.98870056
c p distribution 0.04597701 0.95402299
c p distribution 0.21875 0.78125
c p distribution 0.0052356 0.9947644
c p distribution 0.0212766 0.9787234
c p distribution 0.07692308 0.92307692
c p distribution 0.453125 0.546875
c p distribution 0.1791045 0.1641791 0.6567164
c p distribution 0.02373418 0.03164557 0.94462025
c p distribution 0.5938572066077736 0.40614279339222636
c p distribution 0.5176136653708591 0.4823863346291409
c p distribution 0.6363636 0.3636364
c p distribution 0.6071429 0.3928571
c p distribution 0.6153846 0.3846154
c p distribution 0.6236559 0.3763441
c p distribution 0.5892857 0.4107143
c p distribution 0.7058823 0.2941177
c p distribution 0.625 0.375
c p distribution 0.5932203 0.4067797
c p distribution 0.6666667 0.3333333
c p distribution 0.6043956 0.3956044
c p distribution 0.5277778 0.4722222
c p distribution 0.5359849 0.4640151
c p distribution 0.21982240467393746 0.12864574449391034 0.26368637308757825 0.3878454777445739
c p distribution 0.16284388234882466 0.23275036284412337 0.3714051318559995 0.23300062295105242
c p distribution 0.008674493483837292 0.32571545509646926 0.3092100947200757 0.35639995669961766
c p distribution 0.12713826159975974 0.4239036584281239 0.2309656029336424 0.2179924770384739
c p distribution 0.2627249229674441 0.32166634724262755 0.17213694887238704 0.24347178091754126
c p distribution 0.09849100013558733 0.3818703830042947 0.2562924759091868 0.2633461409509313
c p distribution 0.14055229896195504 0.2657136819740193 0.2812960382449493 0.3124379808190764
c p distribution 0.16832595410251275 0.2826057733438651 0.2294241771217028 0.3196440954319194
c p distribution 0.12591471752476205 0.32354911201413766 0.24108791513546043 0.30944825532563974
c p distribution 0.05208895062286012 0.5594767865561534 0.17334884483398919 0.2150854179869973
c p distribution 0.39953874632932684 0.2546053698185878 0.17816634403112278 0.16768953982096257
c p distribution 0.11170479933080354 0.2650266306861327 0.34827572824107483 0.27499284174198885
c p distribution 0.10021927667982214 0.02521642514290131 0.4640940558226677 0.4104702423546088
c p distribution 0.21688735903919845 0.23253261476026846 0.4033583182411785 0.14722170795935452
c p distribution 0.33059392462797377 0.169815102654235 0.4494338089311478 0.05015716378664339
c p distribution 0.4040674874709718 0.11146663860114259 0.3188149163749378 0.16565095755294762
c p distribution 0.32546624597827195 0.29615304942500004 0.1595742423695236 0.21880646222720454
c p distribution 0.06217695419007732 0.47396076397738995 0.17842466880398453 0.2854376130285482
c p distribution 0.4459174373760876 0.09667197537923186 0.23096524284469497 0.22644534439998554
c p distribution 0.6292496815147003 0.1887278980054084 0.16284180167785098 0.019180618802040368
c p distribution 0.1781328535085105 0.3445661077412643 0.3410511700197577 0.13624986873046757
c p distribution 0.4812159794985887 0.24121639803630193 0.167907680536771 0.10965994192833838
c p distribution 0.23160645702008975 0.10093998530486517 0.3507811409962832 0.3166724166787618
c p distribution 0.03321499397524154 0.4606791037931384 0.43029047517608593 0.07581542705553415
c p distribution 0.5276948308011924 0.3061046309807203 0.07231374305940673 0.09388679515868054
c p distribution 0.1941352922544925 0.4386687003406646 0.029284273289299997 0.3379117341155429
c p distribution 0.23751648137984657 0.3290915556078628 0.23260400341516238 0.20078795959712828
c p distribution 0.2661866132392548 0.2741285647499002 0.272688801958101 0.1869960200527439
c p distribution 0.2853766605442729 0.027939742551463306 0.2768195117906085 0.4098640851136554
c p distribution 0.3539969020617243 0.11983303416669515 0.31310190593115533 0.21306815784042527
c p distribution 0.4068845299541773 0.01655297105342905 0.1771974041914698 0.39936509480092397
c p distribution 0.15431470266740316 0.37453316489662036 0.23376436366665387 0.23738776876932266
c p distribution 0.33364250879182755 0.15254215774517874 0.20361382866736744 0.31020150479562636
c p distribution 0.049594615334127325 0.32468505328009667 0.44497896103273815 0.18074137035303786
c p distribution 0.15616239119800931 0.648134114048646 0.14925928975409639 0.04644420499924831
c p distribution 0.1308499340501397 0.22351516590486953 0.4056774722901441 0.23995742775484669
c p distribution 0.4216573956805617 0.172785136039493 0.15401635319197976 0.2515411150879656
c p distribution 0.0777468224302453 0.32436720719949425 0.08430947421769273 0.5135764961525678
c p distribution 0.2426633442911016 0.3679110200768853 0.10885385363987995 0.2805717819921332
c p distribution 0.3228927982716998 0.2852755310673811 0.08221581670148997 0.30961585395942903
c p distribution 0.253299307099106 0.1324893378739333 0.4908819020094846 0.12332945301747611
c p distribution 0.4859932514788679 0.07224414910207304 0.02370503152160413 0.4180575678974549
c p distribution 0.3678378097013913 0.3179562374395495 0.289379758274254 0.024826194584805183
c p distribution 0.4399413582162562 0.42762175495685467 0.12241469505550467 0.010022191771384501
c p distribution 0.307175510688629 0.2511995051382677 0.23889917514693462 0.20272580902616869
c p distribution 0.2565651096444706 0.15775240786603906 0.5081434966118878 0.07753898587760251
c p distribution 0.2730922491739817 0.257213126127508 0.22139795530660494 0.24829666939190523
c p distribution 0.3759198855021423 0.0373827065633835 0.40034490541578555 0.18635250251868868
c p distribution 0.10424814929741041 0.1517885534565318 0.18876055213671486 0.555202745109343
c p distribution 0.31681454784597873 0.45537109532957504 0.08095634349391448 0.14685801333053172
c p distribution 0.3500419411529855 0.17627446995798843 0.12021114451693939 0.3534724443720867
c p distribution 0.26405451009608355 0.42484304259159167 0.29165236913719894 0.01945007817512579
c p distribution 0.001049319944374168 0.15837255740427197 0.33768451038008074 0.5028936122712733
c p distribution 0.34402394419393767 0.37883024442817365 0.11507841837005739 0.16206739300783132
c p distribution 0.39306209423638133 0.29478710787909074 0.2400625766492567 0.07208822123527113
c p distribution 0.3813230768240818 0.2655344862974939 0.16663084214540733 0.186511594733017
c p distribution 0.30089714313274124 0.2899345219697344 0.14555443126449716 0.2636139036330272
c p distribution 0.3203770906640719 0.16520653896581114 0.36294708487991423 0.15146928549020275
c p distribution 0.04070501168260883 0.4528967805926004 0.34684730995965224 0.15955089776513864
c p distribution 0.10745366081973265 0.22492077417744852 0.34597078536882403 0.32165477963399475
c p distribution 0.13163696982790474 0.2824016503390787 0.16261723691792546 0.4233441429150911
c p distribution 0.4471275954953503 0.11319658041631508 0.12359481215449626 0.31608101193383836
c p distribution 0.038176256985117306 0.4376684334419044 0.2876666501559713 0.23648865941700703
c p distribution 0.2023625479387768 0.15507006321935393 0.3027527090905251 0.3398146797513442
c p distribution 0.1451544633214071 0.34011989303775686 0.16944283707892643 0.34528280656190957
c p distribution 0.26190386726542964 0.16247261095356097 0.20747859993022005 0.3681449218507894
c p distribution 0.15201449360155814 0.3261479558508277 0.34399786481568745 0.17783968573192666
c p distribution 0.007596715578460855 0.5207106291057918 0.28658433909924974 0.18510831621649754
c p distribution 0.2197099425025862 0.4729646257990529 0.25000137778253356 0.05732405391582729
c p distribution 0.19499660575291908 0.3284119236577697 0.11619448873626524 0.360396981853046
c p distribution 0.028575206525151227 0.5073452178007025 0.39271178272201307 0.07136779295213326
c p distribution 0.875 0.125
c p distribution 0.6865672 0.3134328
c p distribution 0.5477387 0.4522613
c p distribution 0.3333333 0.6666667
c p distribution 0.411215 0.588785
c p distribution 0.3868243 0.6131757
c p distribution 0.1775701 0.8224299
c p distribution 0.2804054 0.7195946
c p distribution 0.3934426 0.6065574
c p distribution 0.2857143 0.7142857
c p distribution 0.4776119 0.5223881
c p distribution 0.421875 0.578125
c p distribution 0.3333333 0.6666667
c p distribution 0.3424658 0.6575342
c p distribution 0.4 0.6
c p distribution 0.4691358 0.5308642
c p distribution 0.328125 0.671875
c p distribution 0.3227513 0.6772487
c p distribution 0.09090909 0.90909091
c p distribution 0.4285714 0.5714286
c p distribution 0.3292683 0.6707317
c p distribution 0.2929293 0.7070707
c p distribution 0.2857143 0.7142857
c p distribution 0.4532374 0.5467626
c p distribution 0.04166667 0.29166667 0.66666666
c p distribution 0.04761905 0.28571429 0.66666666
c p distribution 0.02898551 0.28985507 0.68115942
c p distribution 0.04597701 0.29885057 0.65517242
c p distribution 0.03773585 0.26415094 0.69811321
c p distribution 0.04166667 0.27777778 0.68055555
c p distribution 0.02985075 0.29850746 0.67164179
c p distribution 0.04494382 0.33707865 0.61797753
c p distribution 0.03571429 0.21428571 0.75
c p distribution 0.04651163 0.22093023 0.73255814
c p distribution 0.02597403 0.24675325 0.72727272
c p distribution 0.03296703 0.21978022 0.74725275
c p distribution 0.04347826 0.30434783 0.65217391
c p distribution 0.04918033 0.31147541 0.63934426
c p distribution 0.03389831 0.3220339 0.64406779
c p distribution 0.025 0.25 0.725
c p distribution 0.03703704 0.25925926 0.7037037
c p distribution 0.02040816 0.28571429 0.69387755
c p distribution 0.03896104 0.31168831 0.64935065
c p distribution 0.02272727 0.20454545 0.77272728
c p distribution 0.04054054 0.2027027 0.75675676
c p distribution 0.015625 0.234375 0.75
c p distribution 0.02777778 0.19444444 0.77777778
c p distribution 0.04166667 0.33333333 0.625
c p distribution 0.05555556 0.34722222 0.59722222
c p distribution 0.04545455 0.37878788 0.57575757
c p distribution 0.06896552 0.48275862 0.44827586
c p distribution 0.02702703 0.27027027 0.7027027
c p distribution 0.05357143 0.26785714 0.67857143
c p distribution 0.02083333 0.3125 0.66666667
c p distribution 0.06451613 0.38709677 0.5483871
c p distribution 0.02325581 0.18604651 0.79069768
c p distribution 0.07407407 0.14814815 0.77777778
c p distribution 0.00584795 0.23391813 0.76023392
c p distribution 0.2118451 0.3394077 0.4487472
c p distribution 0.99378882 0.00621118
c p distribution 0.8955224 0.1044776
c p distribution 0.7035176 0.2964824
c p distribution 0.1822542 0.8177458
c p distribution 0.5678571 0.4321429
c p distribution 0.01193317 0.98806683
c p distribution 0.1214286 0.8785714
c p distribution 0.04057279 0.95942721
c p distribution 0.029580000990499157 0.9704199990095008
c p distribution 0.7817964569596106 0.2182035430403894
c p distribution 0.3888889 0.6111111
c p distribution 0.8095238 0.1904762
c p distribution 0.147541 0.852459
c p distribution 0.1830239 0.8169761
c p distribution 0.3781026807538001 0.6218973192461998
c p distribution 0.29832662192794895 0.701673378072051
c p distribution 0.9832818750802651 0.016718124919734855
c p distribution 0.3448276 0.6551724
c p distribution 0.06451613 0.93548387
c p distribution 0.1311475 0.8688525
c p distribution 0.07418873483060927 0.27806005478956447 0.3005483110029146 0.3472028993769117
c p distribution 0.1434299933243827 0.22047757490207326 0.18882133399752424 0.4472710977760198
c p distribution 0.014156241371261613 0.6633743344736965 0.13563877127557938 0.18683065287946252
c p distribution 0.009318018661534531 0.2626522455320792 0.18814067296953504 0.5398890628368511
c p distribution 0.20824834374338147 0.27969216944882647 0.17038464596776282 0.34167484084002925
c p distribution 0.11721817511065977 0.3415093817885128 0.3598715746989824 0.18140086840184494
c p distribution 0.36733660232980775 0.3294881032600352 0.30317529441015706
c p distribution 0.04818512205534105 0.43234485079795226 0.5194700271467068
c p distribution 0.4819627627783334 0.12881255676520445 0.38922468045646214
c p distribution 0.35086324193440227 0.5996418820268411 0.04949487603875662
c p distribution 0.4086577653658593 0.18256604734137016 0.40877618729277054
c p distribution 0.34084592668201985 0.40566726481513427 0.2534868085028459
c p distribution 0.0918755616452886 0.11347991891382887 0.7946445194408825
c p distribution 0.30847360604683527 0.31749150098591516 0.37403489296724957
c p distribution 0.3349230276044703 0.32368098042544635 0.34139599197008325
c p distribution 0.49701281191965313 0.11324280400240978 0.3897443840779372
c p distribution 0.4905479597187177 0.30473403193518 0.20471800834610243
c p distribution 0.5385713213345861 0.005509048405993929 0.45591963025942
c p distribution 0.1356665056634713 0.46276823431471814 0.4015652600218106
c p distribution 0.13463941110060632 0.2749572422117993 0.5904033466875944
c p distribution 0.1393667749005267 0.34582118847988513 0.5148120366195881
c p distribution 0.3819153683976322 0.2861455830711786 0.33193904853118933
c p distribution 0.5595750637255826 0.0024326626164513413 0.43799227365796595
c p distribution 0.5656666468268206 0.35995223674587845 0.07438111642730104
c p distribution 0.45480294323634163 0.44034109154259093 0.10485596522106742
c p distribution 0.0415452183631852 0.3386688372181051 0.6197859444187097
c p distribution 0.15802840672350804 0.33355126898136794 0.5084203242951241
c p distribution 0.3489640310370127 0.5387707517200745 0.11226521724291286
c p distribution 0.27516608869316894 0.5064261708360288 0.2184077404708021
c p distribution 0.1461302924157724 0.3123378123651376 0.5415318952190901
c p distribution 0.5018833243066926 0.21582125139997477 0.28229542429333276
c p distribution 0.4329328949077169 0.39227590709237575 0.17479119799990722
c p distribution 0.20402532246805086 0.4375078878508605 0.35846678968108875
c p distribution 0.3069446081125498 0.39201010196977537 0.30104528991767493
c p distribution 0.012908795447180087 0.6349294962814253 0.3521617082713947
c p distribution 0.3620911088418841 0.4155561541733267 0.22235273698478908
c p distribution 0.5514457123189591 0.06681418364106584 0.3817401040399751
c p distribution 0.7619529311256071 0.09514322878744201 0.14290384008695087
c p distribution 0.39464069411560726 0.3642600489236534 0.24109925696073936
c p distribution 0.41788623731643787 0.17359649366710989 0.40851726901645224
c p distribution 0.17405113993311935 0.40364309090636236 0.4223057691605184
c p distribution 0.440939383268066 0.3233319108305411 0.23572870590139297
c p distribution 0.1428571 0.8571429
c p distribution 0.1304348 0.8695652
c p distribution 0.2 0.8
c p distribution 0.5 0.5
c p distribution 0.106383 0.893617
c p distribution 0.1373494 0.8626506
c p distribution 0.1333333 0.8666667
c p distribution 0.255814 0.744186
c p distribution 0.09090909 0.90909091
c p distribution 0.425 0.575
c p distribution 0.25 0.75
c p distribution 0.6666667 0.3333333
c p distribution 0.3925234 0.6074766
c p distribution 0.4307432 0.5692568
c p distribution 0.2068966 0.7931034
c p distribution 0.2258064 0.7741936
c p distribution 0.1114754 0.8885246
c p distribution 0.6106080061550905 0.38939199384490936
c p distribution 0.027364253702310805 0.9726357462976892
c p distribution 0.018633085710896707 0.9813669142891033
c p distribution 0.3635647720416623 0.6364352279583376
c p distribution 0.6278716905491962 0.37212830945080383
c p distribution 0.5775737876916893 0.4224262123083107
c p distribution 0.2173913 0.1304348 0.6521739
c p distribution 0.03550296 0.06508876 0.89940828
c p distribution 0.1280932 0.8719068
c p distribution 0.5833333 0.4166667
c p distribution 0.44571319754000716 0.5542868024599928
c p distribution 0.5046999506960745 0.49530004930392546
c p distribution 0.6979107380834007 0.30208926191659935
c p distribution 0.409025386705444 0.5909746132945559
c p distribution 0.27328707183214007 0.7267129281678599
c p distribution 0.5601274758500155 0.4398725241499846
c p distribution 0.5307939206402745 0.46920607935972536
c p distribution 0.11536008587719873 0.8846399141228013
c p distribution 0.12562311556735095 0.874376884432649
c p distribution 0.49316461801599215 0.5068353819840078
c p distribution 0.5763062437388522 0.4236937562611477
c p distribution 0.16147450321333442 0.8385254967866655
c p distribution 0.4632836003823849 0.5367163996176151
c p distribution 0.26931900961036936 0.7306809903896306
c p distribution 0.321984381363707 0.678015618636293
c p distribution 0.7048010702998075 0.2951989297001924
c p distribution 0.3142251 0.6857749
c p distribution 0.03070175 0.96929825
c p distribution 0.7391304 0.2608696
c p distribution 0.3772189 0.6227811
c p distribution 0.2704918 0.1721312 0.557377
c p distribution 0.2682927 0.1768293 0.554878
c p distribution 0.3093923 0.1767956 0.5138121
c p distribution 0.06024096 0.12048193 0.81927711
c p distribution 0.3425926 0.1712963 0.4861111
c p distribution 0.07594937 0.06329114 0.86075949
c p distribution 0.2941177 0.1911765 0.5147058
c p distribution 0.1045752 0.1633987 0.7320261
c p distribution 0.3333333 0.172043 0.4946237
c p distribution 0.05434783 0.07608696 0.86956521
c p distribution 0.3636364 0.1818182 0.4545455
c p distribution 0.01785714 0.07142857 0.91071429
c p distribution 0.2972973 0.1837838 0.5189189
c p distribution 0.175 0.1625 0.6625
c p distribution 0.3315508 0.171123 0.4973262
c p distribution 0.08602151 0.08602151 0.82795698
c p distribution 0.3629893 0.1779359 0.4590747
c p distribution 0.13432836 0.05970149 0.80597015
c p distribution 0.3205575 0.2055749 0.4738676
c p distribution 0.03296703 0.21978022 0.74725275
c p distribution 0.368 0.184 0.448
c p distribution 0.05555556 0.05555556 0.88888888
c p distribution 0.4321429 0.2107143 0.3571429
c p distribution 0.04733728 0.05325444 0.89940828
c p distribution 0.05882353 0.15686275 0.41176471 0.37254902
c p distribution 0.05172414 0.15517241 0.39655172 0.39655172
c p distribution 0.02 0.12 0.4 0.46
c p distribution 0.0617284 0.1728395 0.4197531 0.345679
c p distribution 0.01724138 0.12068966 0.39655172 0.46551724
c p distribution 0.01818182 0.10909091 0.43636364 0.43636364
c p distribution 0.06849315 0.16438356 0.42465753 0.34246575
c p distribution 0.01923077 0.11538462 0.40384615 0.46153846
c p distribution 0.01666667 0.11666667 0.45 0.41666667
c p distribution 0.06862745 0.16666667 0.42156863 0.34313725
c p distribution 0.02777778 0.11111111 0.38888889 0.47222222
c p distribution 0.02666667 0.09333333 0.42666667 0.45333333
c p distribution 0.06451613 0.17741935 0.41935484 0.33870968
c p distribution 0.02272727 0.11363636 0.40909091 0.45454545
c p distribution 0.02 0.12 0.44 0.42
c p distribution 0.06976744 0.1627907 0.41860465 0.34883721
c p distribution 0.01724138 0.10344828 0.39655172 0.48275862
c p distribution 0.025 0.1 0.425 0.45
c p distribution 0.075 0.1875 0.425 0.3125
c p distribution 0.01886792 0.13207547 0.41509434 0.43396226
c p distribution 0.02816901 0.12676056 0.46478873 0.38028169
c p distribution 0.08148148 0.17777778 0.42222222 0.31851852
c p distribution 0.03409091 0.11363636 0.38636364 0.46590909
c p distribution 0.06896552 0.12068966 0.46551724 0.34482759
c p distribution 0.05454545 0.16363636 0.41818182 0.36363636
c p distribution 0.02173913 0.13043478 0.41304348 0.43478261
c p distribution 0.00212314 0.12738854 0.42462845 0.44585987
c p distribution 0.05479452 0.16438356 0.42465753 0.35616438
c p distribution 0.00191939 0.11516315 0.40307102 0.47984645
c p distribution 0.00172117 0.10327022 0.4475043 0.4475043
c p distribution 0.05882353 0.17647059 0.42647059 0.33823529
c p distribution 0.002079 0.1247401 0.4158004 0.4573805
c p distribution 0.00178253 0.12477718 0.46345811 0.40998217
c p distribution 0.0625 0.1666667 0.4270833 0.34375
c p distribution 0.01492537 0.11940299 0.40298507 0.46268657
c p distribution 0.01176471 0.10588235 0.44705882 0.43529412
c p distribution 0.07017544 0.19298246 0.42105263 0.31578947
c p distribution 0.00269542 0.13477089 0.40431267 0.45822102
c p distribution 0.00249377 0.14962594 0.44887781 0.39900249
c p distribution 0.07792208 0.18181818 0.41558442 0.32467532
c p distribution 0.02040816 0.12244898 0.3877551 0.46938776
c p distribution 0.01470588 0.11764706 0.44117647 0.42647059
c p distribution 0.08333333 0.20833333 0.43055556 0.27777778
c p distribution 0.02272727 0.15909091 0.40909091 0.40909091
c p distribution 0.01724138 0.15517241 0.48275862 0.34482759
c p distribution 0.08661417 0.19685039 0.42519685 0.29133858
c p distribution 0.02631579 0.13157895 0.39473684 0.44736842
c p distribution 0.03225806 0.19354839 0.51612903 0.25806452
c p distribution 0.04761905 0.15873016 0.41269841 0.38095238
c p distribution 0.0021692 0.1084599 0.3904555 0.4989154
c p distribution 0.00191939 0.11516315 0.42226488 0.46065259
c p distribution 0.05882353 0.15294118 0.41176471 0.37647059
c p distribution 0.00166389 0.09983361 0.38269551 0.51580699
c p distribution 0.00131406 0.09198423 0.42049934 0.48620237
c p distribution 0.0625 0.175 0.4125 0.35
c p distribution 0.00181488 0.12704174 0.39927405 0.47186933
c p distribution 0.00144718 0.11577424 0.44862518 0.4341534
c p distribution 0.064 0.168 0.416 0.352
c p distribution 0.01190476 0.10714286 0.38095238 0.5
c p distribution 0.00149031 0.08941878 0.41728763 0.49180328
c p distribution 0.07936508 0.19047619 0.41269841 0.31746032
c p distribution 0.00262467 0.1312336 0.36745407 0.49868766
c p distribution 0.0023753 0.1425178 0.4275534 0.4275534
c p distribution 0.08333333 0.1875 0.40625 0.32291667
c p distribution 0.01818182 0.10909091 0.34545455 0.52727272
c p distribution 0.00369004 0.07380074 0.36900369 0.55350553
c p distribution 0.08988764 0.2247191 0.41573034 0.26966292
c p distribution 0.02083333 0.16666667 0.375 0.4375
c p distribution 0.00584795 0.23391813 0.46783626 0.29239766
c p distribution 0.1208791 0.2307692 0.3956044 0.2527472
c p distribution 0.02777778 0.13888889 0.27777778 0.55555555
c p distribution 0.04569892 0.17473118 0.42741935 0.35215054
c p distribution 0.01960784 0.1372549 0.47058824 0.37254902
c p distribution 0.01754386 0.14035088 0.45614035 0.38596491
c p distribution 0.00199601 0.0998004 0.45908184 0.43912176
c p distribution 0.02469136 0.16049383 0.4691358 0.34567901
c p distribution 0.00172117 0.10327022 0.4475043 0.4475043
c p distribution 0.00181488 0.0907441 0.47186933 0.43557169
c p distribution 0.02777778 0.15277778 0.48611111 0.33333333
c p distribution 0.00191939 0.09596929 0.46065259 0.44145873
c p distribution 0.00166389 0.09983361 0.49916805 0.39933444
c p distribution 0.02912621 0.16504854 0.46601942 0.33980583
c p distribution 0.00142653 0.09985735 0.44222539 0.45649073
c p distribution 0.00133156 0.09320905 0.45272969 0.45272969
c p distribution 0.01612903 0.16129032 0.48387097 0.33870968
c p distribution 0.00221729 0.11086475 0.46563193 0.42128603
c p distribution 0.00199601 0.0998004 0.47904192 0.41916168
c p distribution 0.02352941 0.16470588 0.45882353 0.35294118
c p distribution 0.00172117 0.10327022 0.4302926 0.46471601
c p distribution 0.00126422 0.08849558 0.4551201 0.4551201
c p distribution 0.025 0.175 0.5 0.3
c p distribution 0.00184843 0.11090573 0.4805915 0.40665434
c p distribution 0.00140647 0.11251758 0.52039381 0.36568214
c p distribution 0.03676471 0.17647059 0.47058824 0.31617647
c p distribution 0.01136364 0.10227273 0.44318182 0.44318182
c p distribution 0.01724138 0.13793103 0.5 0.34482759
c p distribution 0.01818182 0.12727273 0.49090909 0.36363636
c p distribution 0.00221729 0.0886918 0.48780488 0.42128603
c p distribution 0.00212314 0.08492569 0.48832272 0.42462845
c p distribution 0.02739726 0.1369863 0.47945205 0.35616438
c p distribution 0.00191939 0.07677543 0.46065259 0.46065259
c p distribution 0.00172117 0.06884682 0.48192771 0.4475043
c p distribution 0.02941176 0.14705882 0.50000001 0.32352941
c p distribution 0.00203666 0.0814664 0.48879837 0.42769857
c p distribution 0.00175131 0.08756567 0.52539405 0.38528897
c p distribution 0.03125 0.15625 0.4791667 0.3333333
c p distribution 0.00149031 0.08941878 0.46199702 0.44709389
c p distribution 0.00116144 0.08130081 0.48780488 0.42973287
c p distribution 0.01818182 0.16363636 0.50909091 0.30909091
c p distribution 0.00269542 0.08086253 0.51212938 0.40431267
c p distribution 0.00249377 0.07481297 0.54862842 0.37406484
c p distribution 0.02597403 0.16883117 0.48051948 0.32467532
c p distribution 0.00203666 0.0814664 0.46843177 0.44806517
c p distribution 0.00149031 0.07451565 0.49180328 0.43219076
c p distribution 0.02777778 0.18055556 0.52777777 0.26388889
c p distribution 0.00226757 0.09070295 0.52154195 0.38548753
c p distribution 0.00172117 0.10327022 0.58519794 0.30981067
c p distribution 0.03937008 0.18110236 0.49606299 0.28346457
c p distribution 0.01315789 0.09210526 0.47368421 0.42105263
c p distribution 0.03225806 0.06451613 0.67741936 0.22580645
c p distribution 0.01612903 0.14516129 0.46774194 0.37096774
c p distribution 0.00212314 0.08492569 0.44585987 0.4670913
c p distribution 0.02380952 0.14285714 0.45238095 0.38095238
c p distribution 0.00166389 0.08319468 0.41597338 0.49916805
c p distribution 0.00133156 0.0665779 0.43941411 0.49267643
c p distribution 0.02531646 0.15189873 0.48101266 0.34177215
c p distribution 0.00181488 0.0907441 0.45372051 0.45372051
c p distribution 0.00142653 0.08559201 0.49928673 0.41369472
c p distribution 0.03174603 0.15873016 0.46031746 0.34920635
c p distribution 0.00120337 0.08423586 0.433213 0.48134777
c p distribution 0.03225806 0.17741935 0.48387097 0.30645161
c p distribution 0.00269542 0.08086253 0.45822102 0.45822102
c p distribution 0.00243309 0.0729927 0.51094891 0.4136253
c p distribution 0.03125 0.1875 0.4583333 0.3229167
c p distribution 0.00181488 0.0907441 0.41742287 0.49001815
c p distribution 0.00369004 0.07380074 0.36900369 0.55350553
c p distribution 0.03370787 0.20224719 0.50561797 0.25842697
c p distribution 0.00212314 0.10615711 0.48832272 0.40339703
c p distribution 0.00584795 0.11695906 0.64327486 0.23391813
c p distribution 0.05494505 0.23076923 0.46153846 0.25274725
c p distribution 0.02777778 0.11111111 0.36111111 0.5
c p distribution 0.01075269 0.22580645 0.46774194 0.29569892
c p distribution 0.01869159 0.04672897 0.93457944
c p distribution 0.01013514 0.01689189 0.97297297
c p distribution 0.1590909 0.1477273 0.1136364 0.5795454
c p distribution 0.1509434 0.1415094 0.1226415 0.5849057
c p distribution 0.1756757 0.1621622 0.1216216 0.5405405
c p distribution 0.06349206 0.04761905 0.11111111 0.77777778
c p distribution 0.1666667 0.1590909 0.1212121 0.5530303
c p distribution 0.05714286 0.04285714 0.1 0.8
c p distribution 0.178771 0.1731844 0.122905 0.5251396
c p distribution 0.06493506 0.06493506 0.11688312 0.75324676
c p distribution 0.1694915 0.1610169 0.1186441 0.5508475
c p distribution 0.06557377 0.04918033 0.09836066 0.78688524
c p distribution 0.1776316 0.1710526 0.125 0.5263158
c p distribution 0.06410256 0.05128205 0.1025641 0.78205129
c p distribution 0.1741935 0.1677419 0.1225806 0.535484
c p distribution 0.06024096 0.04819277 0.09638554 0.79518073
c p distribution 0.1826087 0.1782609 0.126087 0.5130434
c p distribution 0.05660377 0.06603774 0.12264151 0.75471698
c p distribution 0.1546392 0.1443299 0.1134021 0.5876288
c p distribution 0.05555556 0.03703704 0.09259259 0.81481481
c p distribution 0.1666667 0.15 0.125 0.5583333
c p distribution 0.0483871 0.03225806 0.11290323 0.80645161
c p distribution 0.1652893 0.1487603 0.1157025 0.5702479
c p distribution 0.04545455 0.03030303 0.10606061 0.81818181
c p distribution 0.1698113 0.1572327 0.1257862 0.5471698
c p distribution 0.04444444 0.04444444 0.12222222 0.7888889
c p distribution 0.1759259 0.1574074 0.1111111 0.5555556
c p distribution 0.04166667 0.02083333 0.08333333 0.85416667
c p distribution 0.1785714 0.1714286 0.1214286 0.5285714
c p distribution 0.04545455 0.04545455 0.10606061 0.80303029
c p distribution 0.1748252 0.1678322 0.1188811 0.5384615
c p distribution 0.04166667 0.04166667 0.09722222 0.81944444
c p distribution 0.1846847 0.1846847 0.1261261 0.5045045
c p distribution 0.04395604 0.07692308 0.13186813 0.74725275
c p distribution 0.1666667 0.1481482 0.1111111 0.574074
c p distribution 0.05649718 0.00188324 0.07532957 0.86629001
c p distribution 0.1764706 0.1544118 0.1176471 0.5514705
c p distribution 0.04615385 0.01538462 0.09230769 0.84615384
c p distribution 0.1726619 0.1510791 0.1151079 0.5611511
c p distribution 0.04285714 0.01428571 0.08571429 0.85714286
c p distribution 0.1822917 0.1614583 0.1197917 0.5364583
c p distribution 0.03703704 0.02777778 0.10185185 0.83333333
c p distribution 0.1885246 0.1639344 0.1065574 0.5409836
c p distribution 0.04338395 0.0021692 0.04338395 0.9110629
c p distribution 0.1964286 0.1785714 0.1130952 0.5119048
c p distribution 0.03076923 0.01538462 0.06153846 0.89230769
c p distribution 0.1918605 0.1744186 0.1104651 0.5232558
c p distribution 0.02702703 0.01351351 0.05405405 0.90540541
c p distribution 0.1986755 0.192053 0.1225166 0.486755
c p distribution 0.00177936 0.00177936 0.01779359 0.97864769
c p distribution 0.1696429 0.1607143 0.125 0.5446428
c p distribution 0.10526316 0.09210526 0.13157895 0.67105263
c p distribution 0.18 0.1666667 0.1333333 0.52
c p distribution 0.07594937 0.07594937 0.13924051 0.70886075
c p distribution 0.1768707 0.1632653 0.1292517 0.5306123
c p distribution 0.07142857 0.07142857 0.13095238 0.72619048
c p distribution 0.1804878 0.1756098 0.1365854 0.507317
c p distribution 0.07692308 0.08547009 0.14529915 0.69230768
c p distribution 0.1832061 0.1755725 0.129771 0.5114504
c p distribution 0.078125 0.078125 0.125 0.71875
c p distribution 0.1899441 0.1899441 0.1340782 0.4860335
c p distribution 0.07692308 0.08791209 0.13186813 0.7032967
c p distribution 0.1857923 0.1857923 0.1311475 0.4972678
c p distribution 0.07070707 0.08080808 0.12121212 0.72727273
c p distribution 0.1939799 0.1939799 0.1371237 0.4749164
c p distribution 0.08791209 0.14285714 0.17582418 0.59340659
c p distribution 0.1730769 0.1538462 0.125 0.5480769
c p distribution 0.06122449 0.02040816 0.10204082 0.81632653
c p distribution 0.1782946 0.1627907 0.131783 0.5271317
c p distribution 0.05 0.03333333 0.13333333 0.78333334
c p distribution 0.1742424 0.1590909 0.1287879 0.5378788
c p distribution 0.04615385 0.03076923 0.12307692 0.8
c p distribution 0.1843575 0.1675978 0.1340782 0.5139665
c p distribution 0.04210526 0.04210526 0.13684211 0.77894737
c p distribution 0.1913044 0.173913 0.1217391 0.5130435
c p distribution 0.04761905 0.02380952 0.0952381 0.83333333
c p distribution 0.1987179 0.1858974 0.1282051 0.4871795
c p distribution 0.03448276 0.03448276 0.12068966 0.81034482
c p distribution 0.19375 0.18125 0.125 0.5
c p distribution 0.03030303 0.03030303 0.10606061 0.83333333
c p distribution 0.2007435 0.197026 0.133829 0.4684015
c p distribution 0.00277008 0.05540166 0.19390582 0.74792244
c p distribution 0.1854839 0.1612903 0.1209677 0.5322581
c p distribution 0.07393715 0.00184843 0.09242144 0.83179298
c p distribution 0.1939394 0.169697 0.1272727 0.5090909
c p distribution 0.06756757 0.01351351 0.10810811 0.81081081
c p distribution 0.1893491 0.1656805 0.1242604 0.52071
c p distribution 0.0617284 0.01234568 0.09876543 0.82716049
c p distribution 0.1977612 0.1791045 0.1268657 0.4962687
c p distribution 0.07462687 0.02985075 0.13432836 0.76119402
c p distribution 0.2108843 0.1836735 0.1156463 0.4897959
c p distribution 0.06651885 0.00221729 0.0443459 0.88691796
c p distribution 0.2207792 0.1991342 0.1212121 0.4588745
c p distribution 0.11695906 0.00584795 0.05847953 0.81871346
c p distribution 0.2142857 0.1932773 0.1176471 0.4747899
c p distribution 0.07380074 0.00369004 0.03690037 0.88560885
c p distribution 0.2392857 0.225 0.1321429 0.4035714
c p distribution 0.08 0.096 0.144 0.68
c p distribution 0.08965517 0.28275862 0.62758621
c p distribution 0.09174312 0.27981651 0.62844037
c p distribution 0.1015873 0.3047619 0.5936508
c p distribution 0.03296703 0.06593407 0.9010989
c p distribution 0.09659091 0.30113636 0.60227273
c p distribution 0.06918239 0.23899371 0.6918239
c p distribution 0.1050955 0.3152866 0.5796179
c p distribution 0.00277008 0.02770083 0.96952909
c p distribution 0.1034483 0.3256705 0.5708812
c p distribution 0.04477612 0.2238806 0.73134328
c p distribution 0.125 0.3642857 0.5107143
c p distribution 0.00044425 0.09773434 0.90182141
c p distribution 0.41681329889603463 0.5831867011039653
c p distribution 0.7667871805821885 0.23321281941781144
c p distribution 0.43862288743074557 0.5613771125692544
c p distribution 0.0018170446780466816 0.9981829553219533
c p distribution 0.5128986095931767 0.4871013904068234
c p distribution 0.07096892660739725 0.9290310733926027
c p distribution 0.0070922 0.9929078
c p distribution 0.08333333 0.91666667
c p distribution 0.01639344 0.98360656
c p distribution 0.09090909 0.90909091
c p distribution 0.01098901 0.98901099
c p distribution 0.004329 0.995671
c p distribution 0.07142857 0.92857143
c p distribution 0.00195695 0.99804305
c p distribution 0.01408451 0.98591549
c p distribution 0.00452489 0.99547511
c p distribution 0.04225352 0.95774648
c p distribution 0.01492537 0.98507463
c p distribution 0.1818182 0.8181818
c p distribution 0.2222222 0.7777778
c p distribution 0.1176471 0.8823529
c p distribution 0.280916 0.719084
c p distribution 0.3636364 0.6363636
c p distribution 0.3703704 0.6296296
c p distribution 0.3529412 0.6470588
c p distribution 0.2854962 0.7145038
c p distribution 0.3235294 0.6764706
c p distribution 0.3023256 0.6976744
c p distribution 0.1621622 0.8378378
c p distribution 0.3623188 0.6376812
c p distribution 0.2156863 0.7843137
c p distribution 0.1111111 0.8888889
c p distribution 0.3703704 0.6296296
c p distribution 0.2444444 0.7555556
c p distribution 0.1176471 0.8823529
c p distribution 0.4827586 0.5172414
c p distribution 0.2580645 0.7419355
c p distribution 0.1007067 0.8992933
c p distribution 0.3043478 0.6956522
c p distribution 0.01627219 0.98372781
c p distribution 0.6034483 0.3965517
c p distribution 0.483871 0.516129
c p distribution 0.1836066 0.8163934
c p distribution 0.75 0.25
c p distribution 0.5671642 0.4328358
c p distribution 0.3467337 0.6532663
c p distribution 0.1942446 0.8057554
c p distribution 0.91222031 0.08605852 0.00172117
c p distribution 0.96463023 0.00321543 0.03215434
c p distribution 0.7393443 0.1426229 0.1180328
c p distribution 0.7586207 0.2413793
c p distribution 0.4516129 0.5483871
c p distribution 0.2344262 0.7655738
c p distribution 0.6034483 0.3965517
c p distribution 0.3548387 0.6451613
c p distribution 0.1065574 0.8934426
c p distribution 0.00355872 0.99644128
c p distribution 0.07936508 0.92063492
c p distribution 0.00763359 0.99236641
c p distribution 0.1304348 0.8695652
c p distribution 0.0875 0.9125
c p distribution 0.101626 0.898374
c p distribution 0.00355872 0.99644128
c p distribution 0.00158479 0.99841521
c p distribution 0.00763359 0.99236641
c p distribution 0.004329 0.995671
c p distribution 0.00124844 0.99875156
c p distribution 0.00203252 0.99796748
c p distribution 0.5 0.5
c p distribution 0.2903226 0.7096774
c p distribution 0.1409836 0.8590164
c p distribution 0.00355872 0.99644128
c p distribution 0.00158479 0.99841521
c p distribution 0.00763359 0.99236641
c p distribution 0.04347826 0.95652174
c p distribution 0.00124844 0.99875156
c p distribution 0.00203252 0.99796748
c p distribution 0.3636364 0.6363636
c p distribution 0.2727273 0.7272727
c p distribution 0.1 0.9
c p distribution 0.3 0.7
c p distribution 0.2 0.8
c p distribution 0.01 0.99
 -1 2125 0
 -2 2126 0
 -3 2127 0
 -4 2128 0
 -5 2129 0
 -6 2130 0
-2129 -2125 -7 2131 0
-2129 -2125 -8 2132 0
-2130 -2125 -9 2131 0
-2130 -2125 -10 2132 0
-2129 -2126 -11 2131 0
-2129 -2126 -12 2132 0
-2130 -2126 -13 2131 0
-2130 -2126 -14 2132 0
 -15 2133 0
 -16 2134 0
 -17 2135 0
 -18 2136 0
 -19 2137 0
 -20 2138 0
-2137 -21 2139 0
-2137 -22 2140 0
-2138 -23 2139 0
-2138 -24 2140 0
-2133 -2135 -2139 -25 2141 0
-2133 -2135 -2139 -26 2142 0
-2134 -2135 -2139 -27 2141 0
-2134 -2135 -2139 -28 2142 0
-2133 -2136 -2139 -29 2141 0
-2133 -2136 -2139 -30 2142 0
-2134 -2136 -2139 -31 2141 0
-2134 -2136 -2139 -32 2142 0
-2133 -2135 -2140 -33 2141 0
-2133 -2135 -2140 -34 2142 0
-2134 -2135 -2140 -35 2141 0
-2134 -2135 -2140 -36 2142 0
-2133 -2136 -2140 -37 2141 0
-2133 -2136 -2140 -38 2142 0
-2134 -2136 -2140 -39 2141 0
-2134 -2136 -2140 -40 2142 0
-2133 -2135 -2139 -41 2143 0
-2133 -2135 -2139 -42 2144 0
-2134 -2135 -2139 -43 2143 0
-2134 -2135 -2139 -44 2144 0
-2133 -2136 -2139 -45 2143 0
-2133 -2136 -2139 -46 2144 0
-2134 -2136 -2139 -47 2143 0
-2134 -2136 -2139 -48 2144 0
-2133 -2135 -2140 -49 2143 0
-2133 -2135 -2140 -50 2144 0
-2134 -2135 -2140 -51 2143 0
-2134 -2135 -2140 -52 2144 0
-2133 -2136 -2140 -53 2143 0
-2133 -2136 -2140 -54 2144 0
-2134 -2136 -2140 -55 2143 0
-2134 -2136 -2140 -56 2144 0
-2143 -2127 -2141 -57 2145 0
-2143 -2127 -2141 -58 2146 0
-2143 -2127 -2141 -59 2147 0
-2144 -2127 -2141 -60 2145 0
-2144 -2127 -2141 -61 2146 0
-2144 -2127 -2141 -62 2147 0
-2143 -2128 -2141 -63 2145 0
-2143 -2128 -2141 -64 2146 0
-2143 -2128 -2141 -65 2147 0
-2144 -2128 -2141 -66 2145 0
-2144 -2128 -2141 -67 2146 0
-2144 -2128 -2141 -68 2147 0
-2143 -2127 -2142 -69 2145 0
-2143 -2127 -2142 -70 2146 0
-2143 -2127 -2142 -71 2147 0
-2144 -2127 -2142 -72 2145 0
-2144 -2127 -2142 -73 2146 0
-2144 -2127 -2142 -74 2147 0
-2143 -2128 -2142 -75 2145 0
-2143 -2128 -2142 -76 2146 0
-2143 -2128 -2142 -77 2147 0
-2144 -2128 -2142 -78 2145 0
-2144 -2128 -2142 -79 2146 0
-2144 -2128 -2142 -80 2147 0
 -81 2148 0
 -82 2149 0
 -83 2150 0
 -84 2151 0
 -85 2152 0
 -86 2153 0
-2148 -2150 -87 2154 0
-2148 -2150 -88 2155 0
-2149 -2150 -89 2154 0
-2149 -2150 -90 2155 0
-2148 -2151 -91 2154 0
-2148 -2151 -92 2155 0
-2149 -2151 -93 2154 0
-2149 -2151 -94 2155 0
-2148 -2152 -95 2154 0
-2148 -2152 -96 2155 0
-2149 -2152 -97 2154 0
-2149 -2152 -98 2155 0
-2148 -2153 -99 2154 0
-2148 -2153 -100 2155 0
-2149 -2153 -101 2154 0
-2149 -2153 -102 2155 0
-2145 -103 2156 0
-2145 -104 2157 0
-2146 -105 2156 0
-2146 -106 2157 0
-2147 -107 2156 0
-2147 -108 2157 0
 -109 2158 0
 -110 2159 0
-2158 -111 2160 0
-2158 -112 2161 0
-2159 -113 2160 0
-2159 -114 2161 0
-2160 -2125 -115 2162 0
-2160 -2125 -116 2163 0
-2161 -2125 -117 2162 0
-2161 -2125 -118 2163 0
-2160 -2126 -119 2162 0
-2160 -2126 -120 2163 0
-2161 -2126 -121 2162 0
-2161 -2126 -122 2163 0
-2156 -2162 -123 2164 0
-2156 -2162 -124 2165 0
-2156 -2162 -125 2166 0
-2157 -2162 -126 2164 0
-2157 -2162 -127 2165 0
-2157 -2162 -128 2166 0
-2156 -2163 -129 2164 0
-2156 -2163 -130 2165 0
-2156 -2163 -131 2166 0
-2157 -2163 -132 2164 0
-2157 -2163 -133 2165 0
-2157 -2163 -134 2166 0
-2150 -2148 -135 2167 0
-2150 -2148 -136 2168 0
-2151 -2148 -137 2167 0
-2151 -2148 -138 2168 0
-2152 -2148 -139 2167 0
-2152 -2148 -140 2168 0
-2153 -2148 -141 2167 0
-2153 -2148 -142 2168 0
-2150 -2149 -143 2167 0
-2150 -2149 -144 2168 0
-2151 -2149 -145 2167 0
-2151 -2149 -146 2168 0
-2152 -2149 -147 2167 0
-2152 -2149 -148 2168 0
-2153 -2149 -149 2167 0
-2153 -2149 -150 2168 0
-2162 -151 2169 0
-2162 -152 2170 0
-2162 -153 2171 0
-2163 -154 2169 0
-2163 -155 2170 0
-2163 -156 2171 0
-2129 -157 2172 0
-2129 -158 2173 0
-2130 -159 2172 0
-2130 -160 2173 0
-2145 -2131 -2172 -161 2174 0
-2145 -2131 -2172 -162 2175 0
-2146 -2131 -2172 -163 2174 0
-2146 -2131 -2172 -164 2175 0
-2147 -2131 -2172 -165 2174 0
-2147 -2131 -2172 -166 2175 0
-2145 -2132 -2172 -167 2174 0
-2145 -2132 -2172 -168 2175 0
-2146 -2132 -2172 -169 2174 0
-2146 -2132 -2172 -170 2175 0
-2147 -2132 -2172 -171 2174 0
-2147 -2132 -2172 -172 2175 0
-2145 -2131 -2173 -173 2174 0
-2145 -2131 -2173 -174 2175 0
-2146 -2131 -2173 -175 2174 0
-2146 -2131 -2173 -176 2175 0
-2147 -2131 -2173 -177 2174 0
-2147 -2131 -2173 -178 2175 0
-2145 -2132 -2173 -179 2174 0
-2145 -2132 -2173 -180 2175 0
-2146 -2132 -2173 -181 2174 0
-2146 -2132 -2173 -182 2175 0
-2147 -2132 -2173 -183 2174 0
-2147 -2132 -2173 -184 2175 0
-2167 -2154 -2164 -2137 -2145 -185 2176 0
-2167 -2154 -2164 -2137 -2145 -186 2177 0
-2167 -2154 -2164 -2137 -2145 -187 2178 0
-2167 -2154 -2164 -2137 -2145 -188 2179 0
-2168 -2154 -2164 -2137 -2145 -189 2176 0
-2168 -2154 -2164 -2137 -2145 -190 2177 0
-2168 -2154 -2164 -2137 -2145 -191 2178 0
-2168 -2154 -2164 -2137 -2145 -192 2179 0
-2167 -2155 -2164 -2137 -2145 -193 2176 0
-2167 -2155 -2164 -2137 -2145 -194 2177 0
-2167 -2155 -2164 -2137 -2145 -195 2178 0
-2167 -2155 -2164 -2137 -2145 -196 2179 0
-2168 -2155 -2164 -2137 -2145 -197 2176 0
-2168 -2155 -2164 -2137 -2145 -198 2177 0
-2168 -2155 -2164 -2137 -2145 -199 2178 0
-2168 -2155 -2164 -2137 -2145 -200 2179 0
-2167 -2154 -2165 -2137 -2145 -201 2176 0
-2167 -2154 -2165 -2137 -2145 -202 2177 0
-2167 -2154 -2165 -2137 -2145 -203 2178 0
-2167 -2154 -2165 -2137 -2145 -204 2179 0
-2168 -2154 -2165 -2137 -2145 -205 2176 0
-2168 -2154 -2165 -2137 -2145 -206 2177 0
-2168 -2154 -2165 -2137 -2145 -207 2178 0
-2168 -2154 -2165 -2137 -2145 -208 2179 0
-2167 -2155 -2165 -2137 -2145 -209 2176 0
-2167 -2155 -2165 -2137 -2145 -210 2177 0
-2167 -2155 -2165 -2137 -2145 -211 2178 0
-2167 -2155 -2165 -2137 -2145 -212 2179 0
-2168 -2155 -2165 -2137 -2145 -213 2176 0
-2168 -2155 -2165 -2137 -2145 -214 2177 0
-2168 -2155 -2165 -2137 -2145 -215 2178 0
-2168 -2155 -2165 -2137 -2145 -216 2179 0
-2167 -2154 -2166 -2137 -2145 -217 2176 0
-2167 -2154 -2166 -2137 -2145 -218 2177 0
-2167 -2154 -2166 -2137 -2145 -219 2178 0
-2167 -2154 -2166 -2137 -2145 -220 2179 0
-2168 -2154 -2166 -2137 -2145 -221 2176 0
-2168 -2154 -2166 -2137 -2145 -222 2177 0
-2168 -2154 -2166 -2137 -2145 -223 2178 0
-2168 -2154 -2166 -2137 -2145 -224 2179 0
-2167 -2155 -2166 -2137 -2145 -225 2176 0
-2167 -2155 -2166 -2137 -2145 -226 2177 0
-2167 -2155 -2166 -2137 -2145 -227 2178 0
-2167 -2155 -2166 -2137 -2145 -228 2179 0
-2168 -2155 -2166 -2137 -2145 -229 2176 0
-2168 -2155 -2166 -2137 -2145 -230 2177 0
-2168 -2155 -2166 -2137 -2145 -231 2178 0
-2168 -2155 -2166 -2137 -2145 -232 2179 0
-2167 -2154 -2164 -2138 -2145 -233 2176 0
-2167 -2154 -2164 -2138 -2145 -234 2177 0
-2167 -2154 -2164 -2138 -2145 -235 2178 0
-2167 -2154 -2164 -2138 -2145 -236 2179 0
-2168 -2154 -2164 -2138 -2145 -237 2176 0
-2168 -2154 -2164 -2138 -2145 -238 2177 0
-2168 -2154 -2164 -2138 -2145 -239 2178 0
-2168 -2154 -2164 -2138 -2145 -240 2179 0
-2167 -2155 -2164 -2138 -2145 -241 2176 0
-2167 -2155 -2164 -2138 -2145 -242 2177 0
-2167 -2155 -2164 -2138 -2145 -243 2178 0
-2167 -2155 -2164 -2138 -2145 -244 2179 0
-2168 -2155 -2164 -2138 -2145 -245 2176 0
-2168 -2155 -2164 -2138 -2145 -246 2177 0
-2168 -2155 -2164 -2138 -2145 -247 2178 0
-2168 -2155 -2164 -2138 -2145 -248 2179 0
-2167 -2154 -2165 -2138 -2145 -249 2176 0
-2167 -2154 -2165 -2138 -2145 -250 2177 0
-2167 -2154 -2165 -2138 -2145 -251 2178 0
-2167 -2154 -2165 -2138 -2145 -252 2179 0
-2168 -2154 -2165 -2138 -2145 -253 2176 0
-2168 -2154 -2165 -2138 -2145 -254 2177 0
-2168 -2154 -2165 -2138 -2145 -255 2178 0
-2168 -2154 -2165 -2138 -2145 -256 2179 0
-2167 -2155 -2165 -2138 -2145 -257 2176 0
-2167 -2155 -2165 -2138 -2145 -258 2177 0
-2167 -2155 -2165 -2138 -2145 -259 2178 0
-2167 -2155 -2165 -2138 -2145 -260 2179 0
-2168 -2155 -2165 -2138 -2145 -261 2176 0
-2168 -2155 -2165 -2138 -2145 -262 2177 0
-2168 -2155 -2165 -2138 -2145 -263 2178 0
-2168 -2155 -2165 -2138 -2145 -264 2179 0
-2167 -2154 -2166 -2138 -2145 -265 2176 0
-2167 -2154 -2166 -2138 -2145 -266 2177 0
-2167 -2154 -2166 -2138 -2145 -267 2178 0
-2167 -2154 -2166 -2138 -2145 -268 2179 0
-2168 -2154 -2166 -2138 -2145 -269 2176 0
-2168 -2154 -2166 -2138 -2145 -270 2177 0
-2168 -2154 -2166 -2138 -2145 -271 2178 0
-2168 -2154 -2166 -2138 -2145 -272 2179 0
-2167 -2155 -2166 -2138 -2145 -273 2176 0
-2167 -2155 -2166 -2138 -2145 -274 2177 0
-2167 -2155 -2166 -2138 -2145 -275 2178 0
-2167 -2155 -2166 -2138 -2145 -276 2179 0
-2168 -2155 -2166 -2138 -2145 -277 2176 0
-2168 -2155 -2166 -2138 -2145 -278 2177 0
-2168 -2155 -2166 -2138 -2145 -279 2178 0
-2168 -2155 -2166 -2138 -2145 -280 2179 0
-2167 -2154 -2164 -2137 -2146 -281 2176 0
-2167 -2154 -2164 -2137 -2146 -282 2177 0
-2167 -2154 -2164 -2137 -2146 -283 2178 0
-2167 -2154 -2164 -2137 -2146 -284 2179 0
-2168 -2154 -2164 -2137 -2146 -285 2176 0
-2168 -2154 -2164 -2137 -2146 -286 2177 0
-2168 -2154 -2164 -2137 -2146 -287 2178 0
-2168 -2154 -2164 -2137 -2146 -288 2179 0
-2167 -2155 -2164 -2137 -2146 -289 2176 0
-2167 -2155 -2164 -2137 -2146 -290 2177 0
-2167 -2155 -2164 -2137 -2146 -291 2178 0
-2167 -2155 -2164 -2137 -2146 -292 2179 0
-2168 -2155 -2164 -2137 -2146 -293 2176 0
-2168 -2155 -2164 -2137 -2146 -294 2177 0
-2168 -2155 -2164 -2137 -2146 -295 2178 0
-2168 -2155 -2164 -2137 -2146 -296 2179 0
-2167 -2154 -2165 -2137 -2146 -297 2176 0
-2167 -2154 -2165 -2137 -2146 -298 2177 0
-2167 -2154 -2165 -2137 -2146 -299 2178 0
-2167 -2154 -2165 -2137 -2146 -300 2179 0
-2168 -2154 -2165 -2137 -2146 -301 2176 0
-2168 -2154 -2165 -2137 -2146 -302 2177 0
-2168 -2154 -2165 -2137 -2146 -303 2178 0
-2168 -2154 -2165 -2137 -2146 -304 2179 0
-2167 -2155 -2165 -2137 -2146 -305 2176 0
-2167 -2155 -2165 -2137 -2146 -306 2177 0
-2167 -2155 -2165 -2137 -2146 -307 2178 0
-2167 -2155 -2165 -2137 -2146 -308 2179 0
-2168 -2155 -2165 -2137 -2146 -309 2176 0
-2168 -2155 -2165 -2137 -2146 -310 2177 0
-2168 -2155 -2165 -2137 -2146 -311 2178 0
-2168 -2155 -2165 -2137 -2146 -312 2179 0
-2167 -2154 -2166 -2137 -2146 -313 2176 0
-2167 -2154 -2166 -2137 -2146 -314 2177 0
-2167 -2154 -2166 -2137 -2146 -315 2178 0
-2167 -2154 -2166 -2137 -2146 -316 2179 0
-2168 -2154 -2166 -2137 -2146 -317 2176 0
-2168 -2154 -2166 -2137 -2146 -318 2177 0
-2168 -2154 -2166 -2137 -2146 -319 2178 0
-2168 -2154 -2166 -2137 -2146 -320 2179 0
-2167 -2155 -2166 -2137 -2146 -321 2176 0
-2167 -2155 -2166 -2137 -2146 -322 2177 0
-2167 -2155 -2166 -2137 -2146 -323 2178 0
-2167 -2155 -2166 -2137 -2146 -324 2179 0
-2168 -2155 -2166 -2137 -2146 -325 2176 0
-2168 -2155 -2166 -2137 -2146 -326 2177 0
-2168 -2155 -2166 -2137 -2146 -327 2178 0
-2168 -2155 -2166 -2137 -2146 -328 2179 0
-2167 -2154 -2164 -2138 -2146 -329 2176 0
-2167 -2154 -2164 -2138 -2146 -330 2177 0
-2167 -2154 -2164 -2138 -2146 -331 2178 0
-2167 -2154 -2164 -2138 -2146 -332 2179 0
-2168 -2154 -2164 -2138 -2146 -333 2176 0
-2168 -2154 -2164 -2138 -2146 -334 2177 0
-2168 -2154 -2164 -2138 -2146 -335 2178 0
-2168 -2154 -2164 -2138 -2146 -336 2179 0
-2167 -2155 -2164 -2138 -2146 -337 2176 0
-2167 -2155 -2164 -2138 -2146 -338 2177 0
-2167 -2155 -2164 -2138 -2146 -339 2178 0
-2167 -2155 -2164 -2138 -2146 -340 2179 0
-2168 -2155 -2164 -2138 -2146 -341 2176 0
-2168 -2155 -2164 -2138 -2146 -342 2177 0
-2168 -2155 -2164 -2138 -2146 -343 2178 0
-2168 -2155 -2164 -2138 -2146 -344 2179 0
-2167 -2154 -2165 -2138 -2146 -345 2176 0
-2167 -2154 -2165 -2138 -2146 -346 2177 0
-2167 -2154 -2165 -2138 -2146 -347 2178 0
-2167 -2154 -2165 -2138 -2146 -348 2179 0
-2168 -2154 -2165 -2138 -2146 -349 2176 0
-2168 -2154 -2165 -2138 -2146 -350 2177 0
-2168 -2154 -2165 -2138 -2146 -351 2178 0
-2168 -2154 -2165 -2138 -2146 -352 2179 0
-2167 -2155 -2165 -2138 -2146 -353 2176 0
-2167 -2155 -2165 -2138 -2146 -354 2177 0
-2167 -2155 -2165 -2138 -2146 -355 2178 0
-2167 -2155 -2165 -2138 -2146 -356 2179 0
-2168 -2155 -2165 -2138 -2146 -357 2176 0
-2168 -2155 -2165 -2138 -2146 -358 2177 0
-2168 -2155 -2165 -2138 -2146 -359 2178 0
-2168 -2155 -2165 -2138 -2146 -360 2179 0
-2167 -2154 -2166 -2138 -2146 -361 2176 0
-2167 -2154 -2166 -2138 -2146 -362 2177 0
-2167 -2154 -2166 -2138 -2146 -363 2178 0
-2167 -2154 -2166 -2138 -2146 -364 2179 0
-2168 -2154 -2166 -2138 -2146 -365 2176 0
-2168 -2154 -2166 -2138 -2146 -366 2177 0
-2168 -2154 -2166 -2138 -2146 -367 2178 0
-2168 -2154 -2166 -2138 -2146 -368 2179 0
-2167 -2155 -2166 -2138 -2146 -369 2176 0
-2167 -2155 -2166 -2138 -2146 -370 2177 0
-2167 -2155 -2166 -2138 -2146 -371 2178 0
-2167 -2155 -2166 -2138 -2146 -372 2179 0
-2168 -2155 -2166 -2138 -2146 -373 2176 0
-2168 -2155 -2166 -2138 -2146 -374 2177 0
-2168 -2155 -2166 -2138 -2146 -375 2178 0
-2168 -2155 -2166 -2138 -2146 -376 2179 0
-2167 -2154 -2164 -2137 -2147 -377 2176 0
-2167 -2154 -2164 -2137 -2147 -378 2177 0
-2167 -2154 -2164 -2137 -2147 -379 2178 0
-2167 -2154 -2164 -2137 -2147 -380 2179 0
-2168 -2154 -2164 -2137 -2147 -381 2176 0
-2168 -2154 -2164 -2137 -2147 -382 2177 0
-2168 -2154 -2164 -2137 -2147 -383 2178 0
-2168 -2154 -2164 -2137 -2147 -384 2179 0
-2167 -2155 -2164 -2137 -2147 -385 2176 0
-2167 -2155 -2164 -2137 -2147 -386 2177 0
-2167 -2155 -2164 -2137 -2147 -387 2178 0
-2167 -2155 -2164 -2137 -2147 -388 2179 0
-2168 -2155 -2164 -2137 -2147 -389 2176 0
-2168 -2155 -2164 -2137 -2147 -390 2177 0
-2168 -2155 -2164 -2137 -2147 -391 2178 0
-2168 -2155 -2164 -2137 -2147 -392 2179 0
-2167 -2154 -2165 -2137 -2147 -393 2176 0
-2167 -2154 -2165 -2137 -2147 -394 2177 0
-2167 -2154 -2165 -2137 -2147 -395 2178 0
-2167 -2154 -2165 -2137 -2147 -396 2179 0
-2168 -2154 -2165 -2137 -2147 -397 2176 0
-2168 -2154 -2165 -2137 -2147 -398 2177 0
-2168 -2154 -2165 -2137 -2147 -399 2178 0
-2168 -2154 -2165 -2137 -2147 -400 2179 0
-2167 -2155 -2165 -2137 -2147 -401 2176 0
-2167 -2155 -2165 -2137 -2147 -402 2177 0
-2167 -2155 -2165 -2137 -2147 -403 2178 0
-2167 -2155 -2165 -2137 -2147 -404 2179 0
-2168 -2155 -2165 -2137 -2147 -405 2176 0
-2168 -2155 -2165 -2137 -2147 -406 2177 0
-2168 -2155 -2165 -2137 -2147 -407 2178 0
-2168 -2155 -2165 -2137 -2147 -408 2179 0
-2167 -2154 -2166 -2137 -2147 -409 2176 0
-2167 -2154 -2166 -2137 -2147 -410 2177 0
-2167 -2154 -2166 -2137 -2147 -411 2178 0
-2167 -2154 -2166 -2137 -2147 -412 2179 0
-2168 -2154 -2166 -2137 -2147 -413 2176 0
-2168 -2154 -2166 -2137 -2147 -414 2177 0
-2168 -2154 -2166 -2137 -2147 -415 2178 0
-2168 -2154 -2166 -2137 -2147 -416 2179 0
-2167 -2155 -2166 -2137 -2147 -325 2176 0
-2167 -2155 -2166 -2137 -2147 -326 2177 0
-2167 -2155 -2166 -2137 -2147 -327 2178 0
-2167 -2155 -2166 -2137 -2147 -328 2179 0
-2168 -2155 -2166 -2137 -2147 -417 2176 0
-2168 -2155 -2166 -2137 -2147 -418 2177 0
-2168 -2155 -2166 -2137 -2147 -419 2178 0
-2168 -2155 -2166 -2137 -2147 -420 2179 0
-2167 -2154 -2164 -2138 -2147 -421 2176 0
-2167 -2154 -2164 -2138 -2147 -422 2177 0
-2167 -2154 -2164 -2138 -2147 -423 2178 0
-2167 -2154 -2164 -2138 -2147 -424 2179 0
-2168 -2154 -2164 -2138 -2147 -425 2176 0
-2168 -2154 -2164 -2138 -2147 -426 2177 0
-2168 -2154 -2164 -2138 -2147 -427 2178 0
-2168 -2154 -2164 -2138 -2147 -428 2179 0
-2167 -2155 -2164 -2138 -2147 -429 2176 0
-2167 -2155 -2164 -2138 -2147 -430 2177 0
-2167 -2155 -2164 -2138 -2147 -431 2178 0
-2167 -2155 -2164 -2138 -2147 -432 2179 0
-2168 -2155 -2164 -2138 -2147 -433 2176 0
-2168 -2155 -2164 -2138 -2147 -434 2177 0
-2168 -2155 -2164 -2138 -2147 -435 2178 0
-2168 -2155 -2164 -2138 -2147 -436 2179 0
-2167 -2154 -2165 -2138 -2147 -437 2176 0
-2167 -2154 -2165 -2138 -2147 -438 2177 0
-2167 -2154 -2165 -2138 -2147 -439 2178 0
-2167 -2154 -2165 -2138 -2147 -440 2179 0
-2168 -2154 -2165 -2138 -2147 -441 2176 0
-2168 -2154 -2165 -2138 -2147 -442 2177 0
-2168 -2154 -2165 -2138 -2147 -443 2178 0
-2168 -2154 -2165 -2138 -2147 -444 2179 0
-2167 -2155 -2165 -2138 -2147 -445 2176 0
-2167 -2155 -2165 -2138 -2147 -446 2177 0
-2167 -2155 -2165 -2138 -2147 -447 2178 0
-2167 -2155 -2165 -2138 -2147 -448 2179 0
-2168 -2155 -2165 -2138 -2147 -449 2176 0
-2168 -2155 -2165 -2138 -2147 -450 2177 0
-2168 -2155 -2165 -2138 -2147 -451 2178 0
-2168 -2155 -2165 -2138 -2147 -452 2179 0
-2167 -2154 -2166 -2138 -2147 -453 2176 0
-2167 -2154 -2166 -2138 -2147 -454 2177 0
-2167 -2154 -2166 -2138 -2147 -455 2178 0
-2167 -2154 -2166 -2138 -2147 -456 2179 0
-2168 -2154 -2166 -2138 -2147 -457 2176 0
-2168 -2154 -2166 -2138 -2147 -458 2177 0
-2168 -2154 -2166 -2138 -2147 -459 2178 0
-2168 -2154 -2166 -2138 -2147 -460 2179 0
-2167 -2155 -2166 -2138 -2147 -461 2176 0
-2167 -2155 -2166 -2138 -2147 -462 2177 0
-2167 -2155 -2166 -2138 -2147 -463 2178 0
-2167 -2155 -2166 -2138 -2147 -464 2179 0
-2168 -2155 -2166 -2138 -2147 -465 2176 0
-2168 -2155 -2166 -2138 -2147 -466 2177 0
-2168 -2155 -2166 -2138 -2147 -467 2178 0
-2168 -2155 -2166 -2138 -2147 -468 2179 0
-2176 -469 2180 0
-2176 -470 2181 0
-2177 -471 2180 0
-2177 -472 2181 0
-2178 -473 2180 0
-2178 -474 2181 0
-2179 -475 2180 0
-2179 -476 2181 0
-2137 -477 2182 0
-2137 -478 2183 0
-2138 -479 2182 0
-2138 -480 2183 0
-2137 -481 2184 0
-2137 -482 2185 0
-2138 -483 2184 0
-2138 -484 2185 0
-2162 -2167 -485 2186 0
-2162 -2167 -486 2187 0
-2163 -2167 -487 2186 0
-2163 -2167 -488 2187 0
-2162 -2168 -489 2186 0
-2162 -2168 -490 2187 0
-2163 -2168 -491 2186 0
-2163 -2168 -492 2187 0
-2137 -2154 -2145 -493 2188 0
-2137 -2154 -2145 -494 2189 0
-2138 -2154 -2145 -495 2188 0
-2138 -2154 -2145 -496 2189 0
-2137 -2155 -2145 -497 2188 0
-2137 -2155 -2145 -498 2189 0
-2138 -2155 -2145 -499 2188 0
-2138 -2155 -2145 -500 2189 0
-2137 -2154 -2146 -501 2188 0
-2137 -2154 -2146 -502 2189 0
-2138 -2154 -2146 -503 2188 0
-2138 -2154 -2146 -504 2189 0
-2137 -2155 -2146 -505 2188 0
-2137 -2155 -2146 -506 2189 0
-2138 -2155 -2146 -507 2188 0
-2138 -2155 -2146 -508 2189 0
-2137 -2154 -2147 -509 2188 0
-2137 -2154 -2147 -510 2189 0
-2138 -2154 -2147 -511 2188 0
-2138 -2154 -2147 -512 2189 0
-2137 -2155 -2147 -513 2188 0
-2137 -2155 -2147 -514 2189 0
-2138 -2155 -2147 -515 2188 0
-2138 -2155 -2147 -516 2189 0
-2172 -2131 -2164 -2145 -517 2190 0
-2172 -2131 -2164 -2145 -518 2191 0
-2172 -2131 -2164 -2145 -519 2192 0
-2173 -2131 -2164 -2145 -520 2190 0
-2173 -2131 -2164 -2145 -521 2191 0
-2173 -2131 -2164 -2145 -522 2192 0
-2172 -2132 -2164 -2145 -523 2190 0
-2172 -2132 -2164 -2145 -524 2191 0
-2172 -2132 -2164 -2145 -525 2192 0
-2173 -2132 -2164 -2145 -526 2190 0
-2173 -2132 -2164 -2145 -527 2191 0
-2173 -2132 -2164 -2145 -528 2192 0
-2172 -2131 -2165 -2145 -529 2190 0
-2172 -2131 -2165 -2145 -530 2191 0
-2172 -2131 -2165 -2145 -531 2192 0
-2173 -2131 -2165 -2145 -532 2190 0
-2173 -2131 -2165 -2145 -533 2191 0
-2173 -2131 -2165 -2145 -534 2192 0
-2172 -2132 -2165 -2145 -535 2190 0
-2172 -2132 -2165 -2145 -536 2191 0
-2172 -2132 -2165 -2145 -537 2192 0
-2173 -2132 -2165 -2145 -538 2190 0
-2173 -2132 -2165 -2145 -539 2191 0
-2173 -2132 -2165 -2145 -540 2192 0
-2172 -2131 -2166 -2145 -541 2190 0
-2172 -2131 -2166 -2145 -542 2191 0
-2172 -2131 -2166 -2145 -543 2192 0
-2173 -2131 -2166 -2145 -544 2190 0
-2173 -2131 -2166 -2145 -545 2191 0
-2173 -2131 -2166 -2145 -546 2192 0
-2172 -2132 -2166 -2145 -547 2190 0
-2172 -2132 -2166 -2145 -548 2191 0
-2172 -2132 -2166 -2145 -549 2192 0
-2173 -2132 -2166 -2145 -550 2190 0
-2173 -2132 -2166 -2145 -551 2191 0
-2173 -2132 -2166 -2145 -552 2192 0
-2172 -2131 -2164 -2146 -553 2190 0
-2172 -2131 -2164 -2146 -554 2191 0
-2172 -2131 -2164 -2146 -555 2192 0
-2173 -2131 -2164 -2146 -556 2190 0
-2173 -2131 -2164 -2146 -557 2191 0
-2173 -2131 -2164 -2146 -558 2192 0
-2172 -2132 -2164 -2146 -559 2190 0
-2172 -2132 -2164 -2146 -560 2191 0
-2172 -2132 -2164 -2146 -561 2192 0
-2173 -2132 -2164 -2146 -538 2190 0
-2173 -2132 -2164 -2146 -539 2191 0
-2173 -2132 -2164 -2146 -540 2192 0
-2172 -2131 -2165 -2146 -562 2190 0
-2172 -2131 -2165 -2146 -563 2191 0
-2172 -2131 -2165 -2146 -564 2192 0
-2173 -2131 -2165 -2146 -565 2190 0
-2173 -2131 -2165 -2146 -566 2191 0
-2173 -2131 -2165 -2146 -567 2192 0
-2172 -2132 -2165 -2146 -568 2190 0
-2172 -2132 -2165 -2146 -569 2191 0
-2172 -2132 -2165 -2146 -570 2192 0
-2173 -2132 -2165 -2146 -571 2190 0
-2173 -2132 -2165 -2146 -572 2191 0
-2173 -2132 -2165 -2146 -573 2192 0
-2172 -2131 -2166 -2146 -574 2190 0
-2172 -2131 -2166 -2146 -575 2191 0
-2172 -2131 -2166 -2146 -576 2192 0
-2173 -2131 -2166 -2146 -577 2190 0
-2173 -2131 -2166 -2146 -578 2191 0
-2173 -2131 -2166 -2146 -579 2192 0
-2172 -2132 -2166 -2146 -580 2190 0
-2172 -2132 -2166 -2146 -581 2191 0
-2172 -2132 -2166 -2146 -582 2192 0
-2173 -2132 -2166 -2146 -583 2190 0
-2173 -2132 -2166 -2146 -584 2191 0
-2173 -2132 -2166 -2146 -585 2192 0
-2172 -2131 -2164 -2147 -586 2190 0
-2172 -2131 -2164 -2147 -587 2191 0
-2172 -2131 -2164 -2147 -588 2192 0
-2173 -2131 -2164 -2147 -589 2190 0
-2173 -2131 -2164 -2147 -590 2191 0
-2173 -2131 -2164 -2147 -591 2192 0
-2172 -2132 -2164 -2147 -592 2190 0
-2172 -2132 -2164 -2147 -593 2191 0
-2172 -2132 -2164 -2147 -594 2192 0
-2173 -2132 -2164 -2147 -595 2190 0
-2173 -2132 -2164 -2147 -596 2191 0
-2173 -2132 -2164 -2147 -597 2192 0
-2172 -2131 -2165 -2147 -598 2190 0
-2172 -2131 -2165 -2147 -599 2191 0
-2172 -2131 -2165 -2147 -600 2192 0
-2173 -2131 -2165 -2147 -601 2190 0
-2173 -2131 -2165 -2147 -602 2191 0
-2173 -2131 -2165 -2147 -603 2192 0
-2172 -2132 -2165 -2147 -604 2190 0
-2172 -2132 -2165 -2147 -605 2191 0
-2172 -2132 -2165 -2147 -606 2192 0
-2173 -2132 -2165 -2147 -607 2190 0
-2173 -2132 -2165 -2147 -608 2191 0
-2173 -2132 -2165 -2147 -609 2192 0
-2172 -2131 -2166 -2147 -610 2190 0
-2172 -2131 -2166 -2147 -611 2191 0
-2172 -2131 -2166 -2147 -612 2192 0
-2173 -2131 -2166 -2147 -613 2190 0
-2173 -2131 -2166 -2147 -614 2191 0
-2173 -2131 -2166 -2147 -615 2192 0
-2172 -2132 -2166 -2147 -616 2190 0
-2172 -2132 -2166 -2147 -617 2191 0
-2172 -2132 -2166 -2147 -618 2192 0
-2173 -2132 -2166 -2147 -619 2190 0
-2173 -2132 -2166 -2147 -620 2191 0
-2173 -2132 -2166 -2147 -621 2192 0
-2176 -622 2193 0
-2176 -623 2194 0
-2177 -624 2193 0
-2177 -625 2194 0
-2178 -626 2193 0
-2178 -627 2194 0
-2179 -628 2193 0
-2179 -629 2194 0
-2154 -630 2195 0
-2154 -631 2196 0
-2155 -632 2195 0
-2155 -633 2196 0
-2154 -634 2197 0
-2154 -635 2198 0
-2155 -636 2197 0
-2155 -637 2198 0
-2154 -638 2199 0
-2154 -639 2200 0
-2155 -640 2199 0
-2155 -641 2200 0
-2154 -2199 -642 2201 0
-2154 -2199 -643 2202 0
-2155 -2199 -644 2201 0
-2155 -2199 -645 2202 0
-2154 -2200 -646 2201 0
-2154 -2200 -647 2202 0
-2155 -2200 -648 2201 0
-2155 -2200 -649 2202 0
-2164 -650 2203 0
-2164 -651 2204 0
-2165 -652 2203 0
-2165 -653 2204 0
-2166 -654 2203 0
-2166 -655 2204 0
-2164 -656 2205 0
-2164 -657 2206 0
-2165 -658 2205 0
-2165 -659 2206 0
-2166 -660 2205 0
-2166 -661 2206 0
-2164 -2154 -662 2207 0
-2164 -2154 -663 2208 0
-2164 -2154 -664 2209 0
-2164 -2154 -665 2210 0
-2165 -2154 -666 2207 0
-2165 -2154 -667 2208 0
-2165 -2154 -668 2209 0
-2165 -2154 -669 2210 0
-2166 -2154 -670 2207 0
-2166 -2154 -671 2208 0
-2166 -2154 -672 2209 0
-2166 -2154 -673 2210 0
-2164 -2155 -674 2207 0
-2164 -2155 -675 2208 0
-2164 -2155 -676 2209 0
-2164 -2155 -677 2210 0
-2165 -2155 -678 2207 0
-2165 -2155 -679 2208 0
-2165 -2155 -680 2209 0
-2165 -2155 -681 2210 0
-2166 -2155 -682 2207 0
-2166 -2155 -683 2208 0
-2166 -2155 -684 2209 0
-2166 -2155 -685 2210 0
-2145 -2164 -2131 -2167 -686 2211 0
-2145 -2164 -2131 -2167 -687 2212 0
-2145 -2164 -2131 -2167 -688 2213 0
-2146 -2164 -2131 -2167 -689 2211 0
-2146 -2164 -2131 -2167 -690 2212 0
-2146 -2164 -2131 -2167 -691 2213 0
-2147 -2164 -2131 -2167 -692 2211 0
-2147 -2164 -2131 -2167 -693 2212 0
-2147 -2164 -2131 -2167 -694 2213 0
-2145 -2165 -2131 -2167 -695 2211 0
-2145 -2165 -2131 -2167 -696 2212 0
-2145 -2165 -2131 -2167 -697 2213 0
-2146 -2165 -2131 -2167 -698 2211 0
-2146 -2165 -2131 -2167 -699 2212 0
-2146 -2165 -2131 -2167 -700 2213 0
-2147 -2165 -2131 -2167 -701 2211 0
-2147 -2165 -2131 -2167 -702 2212 0
-2147 -2165 -2131 -2167 -703 2213 0
-2145 -2166 -2131 -2167 -704 2211 0
-2145 -2166 -2131 -2167 -705 2212 0
-2145 -2166 -2131 -2167 -706 2213 0
-2146 -2166 -2131 -2167 -707 2211 0
-2146 -2166 -2131 -2167 -708 2212 0
-2146 -2166 -2131 -2167 -709 2213 0
-2147 -2166 -2131 -2167 -710 2211 0
-2147 -2166 -2131 -2167 -711 2212 0
-2147 -2166 -2131 -2167 -712 2213 0
-2145 -2164 -2132 -2167 -713 2211 0
-2145 -2164 -2132 -2167 -714 2212 0
-2145 -2164 -2132 -2167 -715 2213 0
-2146 -2164 -2132 -2167 -716 2211 0
-2146 -2164 -2132 -2167 -717 2212 0
-2146 -2164 -2132 -2167 -718 2213 0
-2147 -2164 -2132 -2167 -719 2211 0
-2147 -2164 -2132 -2167 -720 2212 0
-2147 -2164 -2132 -2167 -721 2213 0
-2145 -2165 -2132 -2167 -722 2211 0
-2145 -2165 -2132 -2167 -723 2212 0
-2145 -2165 -2132 -2167 -724 2213 0
-2146 -2165 -2132 -2167 -725 2211 0
-2146 -2165 -2132 -2167 -726 2212 0
-2146 -2165 -2132 -2167 -727 2213 0
-2147 -2165 -2132 -2167 -728 2211 0
-2147 -2165 -2132 -2167 -729 2212 0
-2147 -2165 -2132 -2167 -730 2213 0
-2145 -2166 -2132 -2167 -731 2211 0
-2145 -2166 -2132 -2167 -732 2212 0
-2145 -2166 -2132 -2167 -733 2213 0
-2146 -2166 -2132 -2167 -734 2211 0
-2146 -2166 -2132 -2167 -735 2212 0
-2146 -2166 -2132 -2167 -736 2213 0
-2147 -2166 -2132 -2167 -737 2211 0
-2147 -2166 -2132 -2167 -738 2212 0
-2147 -2166 -2132 -2167 -739 2213 0
-2145 -2164 -2131 -2168 -740 2211 0
-2145 -2164 -2131 -2168 -741 2212 0
-2145 -2164 -2131 -2168 -742 2213 0
-2146 -2164 -2131 -2168 -743 2211 0
-2146 -2164 -2131 -2168 -744 2212 0
-2146 -2164 -2131 -2168 -745 2213 0
-2147 -2164 -2131 -2168 -746 2211 0
-2147 -2164 -2131 -2168 -747 2212 0
-2147 -2164 -2131 -2168 -748 2213 0
-2145 -2165 -2131 -2168 -749 2211 0
-2145 -2165 -2131 -2168 -750 2212 0
-2145 -2165 -2131 -2168 -751 2213 0
-2146 -2165 -2131 -2168 -752 2211 0
-2146 -2165 -2131 -2168 -753 2212 0
-2146 -2165 -2131 -2168 -754 2213 0
-2147 -2165 -2131 -2168 -755 2211 0
-2147 -2165 -2131 -2168 -756 2212 0
-2147 -2165 -2131 -2168 -757 2213 0
-2145 -2166 -2131 -2168 -758 2211 0
-2145 -2166 -2131 -2168 -759 2212 0
-2145 -2166 -2131 -2168 -760 2213 0
-2146 -2166 -2131 -2168 -761 2211 0
-2146 -2166 -2131 -2168 -762 2212 0
-2146 -2166 -2131 -2168 -763 2213 0
-2147 -2166 -2131 -2168 -764 2211 0
-2147 -2166 -2131 -2168 -765 2212 0
-2147 -2166 -2131 -2168 -766 2213 0
-2145 -2164 -2132 -2168 -767 2211 0
-2145 -2164 -2132 -2168 -768 2212 0
-2145 -2164 -2132 -2168 -769 2213 0
-2146 -2164 -2132 -2168 -770 2211 0
-2146 -2164 -2132 -2168 -771 2212 0
-2146 -2164 -2132 -2168 -772 2213 0
-2147 -2164 -2132 -2168 -773 2211 0
-2147 -2164 -2132 -2168 -774 2212 0
-2147 -2164 -2132 -2168 -775 2213 0
-2145 -2165 -2132 -2168 -776 2211 0
-2145 -2165 -2132 -2168 -777 2212 0
-2145 -2165 -2132 -2168 -778 2213 0
-2146 -2165 -2132 -2168 -779 2211 0
-2146 -2165 -2132 -2168 -780 2212 0
-2146 -2165 -2132 -2168 -781 2213 0
-2147 -2165 -2132 -2168 -782 2211 0
-2147 -2165 -2132 -2168 -783 2212 0
-2147 -2165 -2132 -2168 -784 2213 0
-2145 -2166 -2132 -2168 -785 2211 0
-2145 -2166 -2132 -2168 -786 2212 0
-2145 -2166 -2132 -2168 -787 2213 0
-2146 -2166 -2132 -2168 -788 2211 0
-2146 -2166 -2132 -2168 -789 2212 0
-2146 -2166 -2132 -2168 -790 2213 0
-2147 -2166 -2132 -2168 -791 2211 0
-2147 -2166 -2132 -2168 -792 2212 0
-2147 -2166 -2132 -2168 -793 2213 0
-2207 -2211 -794 2214 0
-2207 -2211 -795 2215 0
-2208 -2211 -796 2214 0
-2208 -2211 -797 2215 0
-2209 -2211 -798 2214 0
-2209 -2211 -799 2215 0
-2210 -2211 -800 2214 0
-2210 -2211 -801 2215 0
-2207 -2212 -802 2214 0
-2207 -2212 -803 2215 0
-2208 -2212 -804 2214 0
-2208 -2212 -805 2215 0
-2209 -2212 -806 2214 0
-2209 -2212 -807 2215 0
-2210 -2212 -808 2214 0
-2210 -2212 -809 2215 0
-2207 -2213 -810 2214 0
-2207 -2213 -811 2215 0
-2208 -2213 -812 2214 0
-2208 -2213 -813 2215 0
-2209 -2213 -814 2214 0
-2209 -2213 -815 2215 0
-2210 -2213 -816 2214 0
-2210 -2213 -817 2215 0
-2137 -818 2216 0
-2137 -819 2217 0
-2138 -820 2216 0
-2138 -821 2217 0
-2164 -822 2218 0
-2164 -823 2219 0
-2165 -824 2218 0
-2165 -825 2219 0
-2166 -826 2218 0
-2166 -827 2219 0
-2164 -2154 -828 2220 0
-2164 -2154 -829 2221 0
-2165 -2154 -830 2220 0
-2165 -2154 -831 2221 0
-2166 -2154 -832 2220 0
-2166 -2154 -833 2221 0
-2164 -2155 -834 2220 0
-2164 -2155 -835 2221 0
-2165 -2155 -836 2220 0
-2165 -2155 -837 2221 0
-2166 -2155 -838 2220 0
-2166 -2155 -839 2221 0
-2220 -840 2222 0
-2220 -841 2223 0
-2220 -842 2224 0
-2221 -843 2222 0
-2221 -844 2223 0
-2221 -845 2224 0
-2203 -846 2225 0
-2203 -847 2226 0
-2204 -848 2225 0
-2204 -849 2226 0
-2172 -2131 -2162 -2167 -850 2227 0
-2172 -2131 -2162 -2167 -851 2228 0
-2173 -2131 -2162 -2167 -852 2227 0
-2173 -2131 -2162 -2167 -853 2228 0
-2172 -2132 -2162 -2167 -854 2227 0
-2172 -2132 -2162 -2167 -855 2228 0
-2173 -2132 -2162 -2167 -856 2227 0
-2173 -2132 -2162 -2167 -857 2228 0
-2172 -2131 -2163 -2167 -858 2227 0
-2172 -2131 -2163 -2167 -859 2228 0
-2173 -2131 -2163 -2167 -860 2227 0
-2173 -2131 -2163 -2167 -861 2228 0
-2172 -2132 -2163 -2167 -862 2227 0
-2172 -2132 -2163 -2167 -863 2228 0
-2173 -2132 -2163 -2167 -864 2227 0
-2173 -2132 -2163 -2167 -865 2228 0
-2172 -2131 -2162 -2168 -866 2227 0
-2172 -2131 -2162 -2168 -867 2228 0
-2173 -2131 -2162 -2168 -868 2227 0
-2173 -2131 -2162 -2168 -869 2228 0
-2172 -2132 -2162 -2168 -870 2227 0
-2172 -2132 -2162 -2168 -871 2228 0
-2173 -2132 -2162 -2168 -872 2227 0
-2173 -2132 -2162 -2168 -873 2228 0
-2172 -2131 -2163 -2168 -874 2227 0
-2172 -2131 -2163 -2168 -875 2228 0
-2173 -2131 -2163 -2168 -876 2227 0
-2173 -2131 -2163 -2168 -877 2228 0
-2172 -2132 -2163 -2168 -878 2227 0
-2172 -2132 -2163 -2168 -879 2228 0
-2173 -2132 -2163 -2168 -880 2227 0
-2173 -2132 -2163 -2168 -881 2228 0
-2227 -882 2229 0
-2227 -883 2230 0
-2228 -884 2229 0
-2228 -885 2230 0
-2220 -886 2231 0
-2220 -887 2232 0
-2221 -888 2231 0
-2221 -889 2232 0
-2154 -2145 -2162 -2167 -890 2233 0
-2154 -2145 -2162 -2167 -891 2234 0
-2154 -2145 -2162 -2167 -892 2235 0
-2155 -2145 -2162 -2167 -893 2233 0
-2155 -2145 -2162 -2167 -894 2234 0
-2155 -2145 -2162 -2167 -895 2235 0
-2154 -2146 -2162 -2167 -896 2233 0
-2154 -2146 -2162 -2167 -897 2234 0
-2154 -2146 -2162 -2167 -898 2235 0
-2155 -2146 -2162 -2167 -899 2233 0
-2155 -2146 -2162 -2167 -900 2234 0
-2155 -2146 -2162 -2167 -901 2235 0
-2154 -2147 -2162 -2167 -902 2233 0
-2154 -2147 -2162 -2167 -903 2234 0
-2154 -2147 -2162 -2167 -904 2235 0
-2155 -2147 -2162 -2167 -905 2233 0
-2155 -2147 -2162 -2167 -906 2234 0
-2155 -2147 -2162 -2167 -907 2235 0
-2154 -2145 -2163 -2167 -908 2233 0
-2154 -2145 -2163 -2167 -909 2234 0
-2154 -2145 -2163 -2167 -910 2235 0
-2155 -2145 -2163 -2167 -911 2233 0
-2155 -2145 -2163 -2167 -912 2234 0
-2155 -2145 -2163 -2167 -913 2235 0
-2154 -2146 -2163 -2167 -914 2233 0
-2154 -2146 -2163 -2167 -915 2234 0
-2154 -2146 -2163 -2167 -916 2235 0
-2155 -2146 -2163 -2167 -917 2233 0
-2155 -2146 -2163 -2167 -918 2234 0
-2155 -2146 -2163 -2167 -919 2235 0
-2154 -2147 -2163 -2167 -920 2233 0
-2154 -2147 -2163 -2167 -921 2234 0
-2154 -2147 -2163 -2167 -922 2235 0
-2155 -2147 -2163 -2167 -923 2233 0
-2155 -2147 -2163 -2167 -924 2234 0
-2155 -2147 -2163 -2167 -925 2235 0
-2154 -2145 -2162 -2168 -926 2233 0
-2154 -2145 -2162 -2168 -927 2234 0
-2154 -2145 -2162 -2168 -928 2235 0
-2155 -2145 -2162 -2168 -929 2233 0
-2155 -2145 -2162 -2168 -930 2234 0
-2155 -2145 -2162 -2168 -931 2235 0
-2154 -2146 -2162 -2168 -932 2233 0
-2154 -2146 -2162 -2168 -933 2234 0
-2154 -2146 -2162 -2168 -934 2235 0
-2155 -2146 -2162 -2168 -935 2233 0
-2155 -2146 -2162 -2168 -936 2234 0
-2155 -2146 -2162 -2168 -937 2235 0
-2154 -2147 -2162 -2168 -938 2233 0
-2154 -2147 -2162 -2168 -939 2234 0
-2154 -2147 -2162 -2168 -940 2235 0
-2155 -2147 -2162 -2168 -941 2233 0
-2155 -2147 -2162 -2168 -942 2234 0
-2155 -2147 -2162 -2168 -943 2235 0
-2154 -2145 -2163 -2168 -944 2233 0
-2154 -2145 -2163 -2168 -945 2234 0
-2154 -2145 -2163 -2168 -946 2235 0
-2155 -2145 -2163 -2168 -947 2233 0
-2155 -2145 -2163 -2168 -948 2234 0
-2155 -2145 -2163 -2168 -949 2235 0
-2154 -2146 -2163 -2168 -950 2233 0
-2154 -2146 -2163 -2168 -951 2234 0
-2154 -2146 -2163 -2168 -952 2235 0
-2155 -2146 -2163 -2168 -953 2233 0
-2155 -2146 -2163 -2168 -954 2234 0
-2155 -2146 -2163 -2168 -955 2235 0
-2154 -2147 -2163 -2168 -956 2233 0
-2154 -2147 -2163 -2168 -957 2234 0
-2154 -2147 -2163 -2168 -958 2235 0
-2155 -2147 -2163 -2168 -959 2233 0
-2155 -2147 -2163 -2168 -960 2234 0
-2155 -2147 -2163 -2168 -961 2235 0
-2145 -2172 -2131 -2162 -2164 -962 2236 0
-2145 -2172 -2131 -2162 -2164 -963 2237 0
-2145 -2172 -2131 -2162 -2164 -964 2238 0
-2145 -2172 -2131 -2162 -2164 -965 2239 0
-2146 -2172 -2131 -2162 -2164 -966 2236 0
-2146 -2172 -2131 -2162 -2164 -967 2237 0
-2146 -2172 -2131 -2162 -2164 -968 2238 0
-2146 -2172 -2131 -2162 -2164 -969 2239 0
-2147 -2172 -2131 -2162 -2164 -970 2236 0
-2147 -2172 -2131 -2162 -2164 -971 2237 0
-2147 -2172 -2131 -2162 -2164 -972 2238 0
-2147 -2172 -2131 -2162 -2164 -973 2239 0
-2145 -2173 -2131 -2162 -2164 -974 2236 0
-2145 -2173 -2131 -2162 -2164 -975 2237 0
-2145 -2173 -2131 -2162 -2164 -976 2238 0
-2145 -2173 -2131 -2162 -2164 -977 2239 0
-2146 -2173 -2131 -2162 -2164 -978 2236 0
-2146 -2173 -2131 -2162 -2164 -979 2237 0
-2146 -2173 -2131 -2162 -2164 -980 2238 0
-2146 -2173 -2131 -2162 -2164 -981 2239 0
-2147 -2173 -2131 -2162 -2164 -982 2236 0
-2147 -2173 -2131 -2162 -2164 -983 2237 0
-2147 -2173 -2131 -2162 -2164 -984 2238 0
-2147 -2173 -2131 -2162 -2164 -985 2239 0
-2145 -2172 -2132 -2162 -2164 -986 2236 0
-2145 -2172 -2132 -2162 -2164 -987 2237 0
-2145 -2172 -2132 -2162 -2164 -988 2238 0
-2145 -2172 -2132 -2162 -2164 -989 2239 0
-2146 -2172 -2132 -2162 -2164 -990 2236 0
-2146 -2172 -2132 -2162 -2164 -991 2237 0
-2146 -2172 -2132 -2162 -2164 -992 2238 0
-2146 -2172 -2132 -2162 -2164 -993 2239 0
-2147 -2172 -2132 -2162 -2164 -994 2236 0
-2147 -2172 -2132 -2162 -2164 -995 2237 0
-2147 -2172 -2132 -2162 -2164 -996 2238 0
-2147 -2172 -2132 -2162 -2164 -997 2239 0
-2145 -2173 -2132 -2162 -2164 -998 2236 0
-2145 -2173 -2132 -2162 -2164 -999 2237 0
-2145 -2173 -2132 -2162 -2164 -1000 2238 0
-2145 -2173 -2132 -2162 -2164 -1001 2239 0
-2146 -2173 -2132 -2162 -2164 -1002 2236 0
-2146 -2173 -2132 -2162 -2164 -1003 2237 0
-2146 -2173 -2132 -2162 -2164 -1004 2238 0
-2146 -2173 -2132 -2162 -2164 -1005 2239 0
-2147 -2173 -2132 -2162 -2164 -1006 2236 0
-2147 -2173 -2132 -2162 -2164 -1007 2237 0
-2147 -2173 -2132 -2162 -2164 -1008 2238 0
-2147 -2173 -2132 -2162 -2164 -1009 2239 0
-2145 -2172 -2131 -2163 -2164 -1010 2236 0
-2145 -2172 -2131 -2163 -2164 -1011 2237 0
-2145 -2172 -2131 -2163 -2164 -1012 2238 0
-2145 -2172 -2131 -2163 -2164 -1013 2239 0
-2146 -2172 -2131 -2163 -2164 -1014 2236 0
-2146 -2172 -2131 -2163 -2164 -1015 2237 0
-2146 -2172 -2131 -2163 -2164 -1016 2238 0
-2146 -2172 -2131 -2163 -2164 -1017 2239 0
-2147 -2172 -2131 -2163 -2164 -1018 2236 0
-2147 -2172 -2131 -2163 -2164 -1019 2237 0
-2147 -2172 -2131 -2163 -2164 -1020 2238 0
-2147 -2172 -2131 -2163 -2164 -1021 2239 0
-2145 -2173 -2131 -2163 -2164 -1022 2236 0
-2145 -2173 -2131 -2163 -2164 -1023 2237 0
-2145 -2173 -2131 -2163 -2164 -1024 2238 0
-2145 -2173 -2131 -2163 -2164 -1025 2239 0
-2146 -2173 -2131 -2163 -2164 -1026 2236 0
-2146 -2173 -2131 -2163 -2164 -1027 2237 0
-2146 -2173 -2131 -2163 -2164 -1028 2238 0
-2146 -2173 -2131 -2163 -2164 -1029 2239 0
-2147 -2173 -2131 -2163 -2164 -1030 2236 0
-2147 -2173 -2131 -2163 -2164 -1031 2237 0
-2147 -2173 -2131 -2163 -2164 -1032 2238 0
-2147 -2173 -2131 -2163 -2164 -1033 2239 0
-2145 -2172 -2132 -2163 -2164 -1034 2236 0
-2145 -2172 -2132 -2163 -2164 -1035 2237 0
-2145 -2172 -2132 -2163 -2164 -1036 2238 0
-2145 -2172 -2132 -2163 -2164 -1037 2239 0
-2146 -2172 -2132 -2163 -2164 -1038 2236 0
-2146 -2172 -2132 -2163 -2164 -1039 2237 0
-2146 -2172 -2132 -2163 -2164 -1040 2238 0
-2146 -2172 -2132 -2163 -2164 -1041 2239 0
-2147 -2172 -2132 -2163 -2164 -1042 2236 0
-2147 -2172 -2132 -2163 -2164 -1043 2237 0
-2147 -2172 -2132 -2163 -2164 -1044 2238 0
-2147 -2172 -2132 -2163 -2164 -1045 2239 0
-2145 -2173 -2132 -2163 -2164 -1046 2236 0
-2145 -2173 -2132 -2163 -2164 -1047 2237 0
-2145 -2173 -2132 -2163 -2164 -1048 2238 0
-2145 -2173 -2132 -2163 -2164 -1049 2239 0
-2146 -2173 -2132 -2163 -2164 -1050 2236 0
-2146 -2173 -2132 -2163 -2164 -1051 2237 0
-2146 -2173 -2132 -2163 -2164 -1052 2238 0
-2146 -2173 -2132 -2163 -2164 -1053 2239 0
-2147 -2173 -2132 -2163 -2164 -1054 2236 0
-2147 -2173 -2132 -2163 -2164 -1055 2237 0
-2147 -2173 -2132 -2163 -2164 -1056 2238 0
-2147 -2173 -2132 -2163 -2164 -1057 2239 0
-2145 -2172 -2131 -2162 -2165 -1058 2236 0
-2145 -2172 -2131 -2162 -2165 -1059 2237 0
-2145 -2172 -2131 -2162 -2165 -1060 2238 0
-2145 -2172 -2131 -2162 -2165 -1061 2239 0
-2146 -2172 -2131 -2162 -2165 -1062 2236 0
-2146 -2172 -2131 -2162 -2165 -1063 2237 0
-2146 -2172 -2131 -2162 -2165 -1064 2238 0
-2146 -2172 -2131 -2162 -2165 -1065 2239 0
-2147 -2172 -2131 -2162 -2165 -1066 2236 0
-2147 -2172 -2131 -2162 -2165 -1067 2237 0
-2147 -2172 -2131 -2162 -2165 -1068 2238 0
-2147 -2172 -2131 -2162 -2165 -1069 2239 0
-2145 -2173 -2131 -2162 -2165 -1070 2236 0
-2145 -2173 -2131 -2162 -2165 -1071 2237 0
-2145 -2173 -2131 -2162 -2165 -1072 2238 0
-2145 -2173 -2131 -2162 -2165 -1073 2239 0
-2146 -2173 -2131 -2162 -2165 -1074 2236 0
-2146 -2173 -2131 -2162 -2165 -1075 2237 0
-2146 -2173 -2131 -2162 -2165 -1076 2238 0
-2146 -2173 -2131 -2162 -2165 -1077 2239 0
-2147 -2173 -2131 -2162 -2165 -1078 2236 0
-2147 -2173 -2131 -2162 -2165 -1079 2237 0
-2147 -2173 -2131 -2162 -2165 -1080 2238 0
-2147 -2173 -2131 -2162 -2165 -1081 2239 0
-2145 -2172 -2132 -2162 -2165 -1082 2236 0
-2145 -2172 -2132 -2162 -2165 -1083 2237 0
-2145 -2172 -2132 -2162 -2165 -1084 2238 0
-2145 -2172 -2132 -2162 -2165 -1085 2239 0
-2146 -2172 -2132 -2162 -2165 -1086 2236 0
-2146 -2172 -2132 -2162 -2165 -1087 2237 0
-2146 -2172 -2132 -2162 -2165 -1088 2238 0
-2146 -2172 -2132 -2162 -2165 -1089 2239 0
-2147 -2172 -2132 -2162 -2165 -1090 2236 0
-2147 -2172 -2132 -2162 -2165 -1091 2237 0
-2147 -2172 -2132 -2162 -2165 -1092 2238 0
-2147 -2172 -2132 -2162 -2165 -1093 2239 0
-2145 -2173 -2132 -2162 -2165 -1094 2236 0
-2145 -2173 -2132 -2162 -2165 -1095 2237 0
-2145 -2173 -2132 -2162 -2165 -1096 2238 0
-2145 -2173 -2132 -2162 -2165 -1097 2239 0
-2146 -2173 -2132 -2162 -2165 -1098 2236 0
-2146 -2173 -2132 -2162 -2165 -1099 2237 0
-2146 -2173 -2132 -2162 -2165 -1100 2238 0
-2146 -2173 -2132 -2162 -2165 -1101 2239 0
-2147 -2173 -2132 -2162 -2165 -1102 2236 0
-2147 -2173 -2132 -2162 -2165 -1103 2237 0
-2147 -2173 -2132 -2162 -2165 -1104 2238 0
-2147 -2173 -2132 -2162 -2165 -1105 2239 0
-2145 -2172 -2131 -2163 -2165 -1106 2236 0
-2145 -2172 -2131 -2163 -2165 -1107 2237 0
-2145 -2172 -2131 -2163 -2165 -1108 2238 0
-2145 -2172 -2131 -2163 -2165 -1109 2239 0
-2146 -2172 -2131 -2163 -2165 -1110 2236 0
-2146 -2172 -2131 -2163 -2165 -1111 2237 0
-2146 -2172 -2131 -2163 -2165 -1112 2238 0
-2146 -2172 -2131 -2163 -2165 -1113 2239 0
-2147 -2172 -2131 -2163 -2165 -1114 2236 0
-2147 -2172 -2131 -2163 -2165 -1115 2237 0
-2147 -2172 -2131 -2163 -2165 -1116 2238 0
-2147 -2172 -2131 -2163 -2165 -1117 2239 0
-2145 -2173 -2131 -2163 -2165 -1118 2236 0
-2145 -2173 -2131 -2163 -2165 -1119 2237 0
-2145 -2173 -2131 -2163 -2165 -1120 2238 0
-2145 -2173 -2131 -2163 -2165 -1121 2239 0
-2146 -2173 -2131 -2163 -2165 -1122 2236 0
-2146 -2173 -2131 -2163 -2165 -1123 2237 0
-2146 -2173 -2131 -2163 -2165 -1124 2238 0
-2146 -2173 -2131 -2163 -2165 -1125 2239 0
-2147 -2173 -2131 -2163 -2165 -1126 2236 0
-2147 -2173 -2131 -2163 -2165 -1127 2237 0
-2147 -2173 -2131 -2163 -2165 -1128 2238 0
-2147 -2173 -2131 -2163 -2165 -1129 2239 0
-2145 -2172 -2132 -2163 -2165 -1130 2236 0
-2145 -2172 -2132 -2163 -2165 -1131 2237 0
-2145 -2172 -2132 -2163 -2165 -1132 2238 0
-2145 -2172 -2132 -2163 -2165 -1133 2239 0
-2146 -2172 -2132 -2163 -2165 -1134 2236 0
-2146 -2172 -2132 -2163 -2165 -1135 2237 0
-2146 -2172 -2132 -2163 -2165 -1136 2238 0
-2146 -2172 -2132 -2163 -2165 -1137 2239 0
-2147 -2172 -2132 -2163 -2165 -1138 2236 0
-2147 -2172 -2132 -2163 -2165 -1139 2237 0
-2147 -2172 -2132 -2163 -2165 -1140 2238 0
-2147 -2172 -2132 -2163 -2165 -1141 2239 0
-2145 -2173 -2132 -2163 -2165 -1142 2236 0
-2145 -2173 -2132 -2163 -2165 -1143 2237 0
-2145 -2173 -2132 -2163 -2165 -1144 2238 0
-2145 -2173 -2132 -2163 -2165 -1145 2239 0
-2146 -2173 -2132 -2163 -2165 -1146 2236 0
-2146 -2173 -2132 -2163 -2165 -1147 2237 0
-2146 -2173 -2132 -2163 -2165 -1148 2238 0
-2146 -2173 -2132 -2163 -2165 -1149 2239 0
-2147 -2173 -2132 -2163 -2165 -1150 2236 0
-2147 -2173 -2132 -2163 -2165 -1151 2237 0
-2147 -2173 -2132 -2163 -2165 -1152 2238 0
-2147 -2173 -2132 -2163 -2165 -1153 2239 0
-2145 -2172 -2131 -2162 -2166 -1154 2236 0
-2145 -2172 -2131 -2162 -2166 -1155 2237 0
-2145 -2172 -2131 -2162 -2166 -1156 2238 0
-2145 -2172 -2131 -2162 -2166 -1157 2239 0
-2146 -2172 -2131 -2162 -2166 -1158 2236 0
-2146 -2172 -2131 -2162 -2166 -1159 2237 0
-2146 -2172 -2131 -2162 -2166 -1160 2238 0
-2146 -2172 -2131 -2162 -2166 -1161 2239 0
-2147 -2172 -2131 -2162 -2166 -1162 2236 0
-2147 -2172 -2131 -2162 -2166 -1163 2237 0
-2147 -2172 -2131 -2162 -2166 -1164 2238 0
-2147 -2172 -2131 -2162 -2166 -1165 2239 0
-2145 -2173 -2131 -2162 -2166 -1166 2236 0
-2145 -2173 -2131 -2162 -2166 -1167 2237 0
-2145 -2173 -2131 -2162 -2166 -1168 2238 0
-2145 -2173 -2131 -2162 -2166 -1169 2239 0
-2146 -2173 -2131 -2162 -2166 -1170 2236 0
-2146 -2173 -2131 -2162 -2166 -1171 2237 0
-2146 -2173 -2131 -2162 -2166 -1172 2238 0
-2146 -2173 -2131 -2162 -2166 -1173 2239 0
-2147 -2173 -2131 -2162 -2166 -1174 2236 0
-2147 -2173 -2131 -2162 -2166 -1175 2237 0
-2147 -2173 -2131 -2162 -2166 -1176 2238 0
-2147 -2173 -2131 -2162 -2166 -1177 2239 0
-2145 -2172 -2132 -2162 -2166 -1178 2236 0
-2145 -2172 -2132 -2162 -2166 -1179 2237 0
-2145 -2172 -2132 -2162 -2166 -1180 2238 0
-2145 -2172 -2132 -2162 -2166 -1181 2239 0
-2146 -2172 -2132 -2162 -2166 -1182 2236 0
-2146 -2172 -2132 -2162 -2166 -1183 2237 0
-2146 -2172 -2132 -2162 -2166 -1184 2238 0
-2146 -2172 -2132 -2162 -2166 -1185 2239 0
-2147 -2172 -2132 -2162 -2166 -1186 2236 0
-2147 -2172 -2132 -2162 -2166 -1187 2237 0
-2147 -2172 -2132 -2162 -2166 -1188 2238 0
-2147 -2172 -2132 -2162 -2166 -1189 2239 0
-2145 -2173 -2132 -2162 -2166 -1190 2236 0
-2145 -2173 -2132 -2162 -2166 -1191 2237 0
-2145 -2173 -2132 -2162 -2166 -1192 2238 0
-2145 -2173 -2132 -2162 -2166 -1193 2239 0
-2146 -2173 -2132 -2162 -2166 -1194 2236 0
-2146 -2173 -2132 -2162 -2166 -1195 2237 0
-2146 -2173 -2132 -2162 -2166 -1196 2238 0
-2146 -2173 -2132 -2162 -2166 -1197 2239 0
-2147 -2173 -2132 -2162 -2166 -1198 2236 0
-2147 -2173 -2132 -2162 -2166 -1199 2237 0
-2147 -2173 -2132 -2162 -2166 -1200 2238 0
-2147 -2173 -2132 -2162 -2166 -1201 2239 0
-2145 -2172 -2131 -2163 -2166 -1202 2236 0
-2145 -2172 -2131 -2163 -2166 -1203 2237 0
-2145 -2172 -2131 -2163 -2166 -1204 2238 0
-2145 -2172 -2131 -2163 -2166 -1205 2239 0
-2146 -2172 -2131 -2163 -2166 -1206 2236 0
-2146 -2172 -2131 -2163 -2166 -1207 2237 0
-2146 -2172 -2131 -2163 -2166 -1208 2238 0
-2146 -2172 -2131 -2163 -2166 -1209 2239 0
-2147 -2172 -2131 -2163 -2166 -1210 2236 0
-2147 -2172 -2131 -2163 -2166 -1211 2237 0
-2147 -2172 -2131 -2163 -2166 -1212 2238 0
-2147 -2172 -2131 -2163 -2166 -1213 2239 0
-2145 -2173 -2131 -2163 -2166 -1214 2236 0
-2145 -2173 -2131 -2163 -2166 -1215 2237 0
-2145 -2173 -2131 -2163 -2166 -1216 2238 0
-2145 -2173 -2131 -2163 -2166 -1217 2239 0
-2146 -2173 -2131 -2163 -2166 -1218 2236 0
-2146 -2173 -2131 -2163 -2166 -1219 2237 0
-2146 -2173 -2131 -2163 -2166 -1220 2238 0
-2146 -2173 -2131 -2163 -2166 -1221 2239 0
-2147 -2173 -2131 -2163 -2166 -1222 2236 0
-2147 -2173 -2131 -2163 -2166 -1223 2237 0
-2147 -2173 -2131 -2163 -2166 -1224 2238 0
-2147 -2173 -2131 -2163 -2166 -1225 2239 0
-2145 -2172 -2132 -2163 -2166 -1226 2236 0
-2145 -2172 -2132 -2163 -2166 -1227 2237 0
-2145 -2172 -2132 -2163 -2166 -1228 2238 0
-2145 -2172 -2132 -2163 -2166 -1229 2239 0
-2146 -2172 -2132 -2163 -2166 -1230 2236 0
-2146 -2172 -2132 -2163 -2166 -1231 2237 0
-2146 -2172 -2132 -2163 -2166 -1232 2238 0
-2146 -2172 -2132 -2163 -2166 -1233 2239 0
-2147 -2172 -2132 -2163 -2166 -1234 2236 0
-2147 -2172 -2132 -2163 -2166 -1235 2237 0
-2147 -2172 -2132 -2163 -2166 -1236 2238 0
-2147 -2172 -2132 -2163 -2166 -1237 2239 0
-2145 -2173 -2132 -2163 -2166 -1238 2236 0
-2145 -2173 -2132 -2163 -2166 -1239 2237 0
-2145 -2173 -2132 -2163 -2166 -1240 2238 0
-2145 -2173 -2132 -2163 -2166 -1241 2239 0
-2146 -2173 -2132 -2163 -2166 -1242 2236 0
-2146 -2173 -2132 -2163 -2166 -1243 2237 0
-2146 -2173 -2132 -2163 -2166 -1244 2238 0
-2146 -2173 -2132 -2163 -2166 -1245 2239 0
-2147 -2173 -2132 -2163 -2166 -1246 2236 0
-2147 -2173 -2132 -2163 -2166 -1247 2237 0
-2147 -2173 -2132 -2163 -2166 -1248 2238 0
-2147 -2173 -2132 -2163 -2166 -1249 2239 0
-2145 -2172 -2131 -2162 -2164 -1250 2240 0
-2145 -2172 -2131 -2162 -2164 -1251 2241 0
-2145 -2172 -2131 -2162 -2164 -1252 2242 0
-2145 -2172 -2131 -2162 -2164 -1253 2243 0
-2146 -2172 -2131 -2162 -2164 -1254 2240 0
-2146 -2172 -2131 -2162 -2164 -1255 2241 0
-2146 -2172 -2131 -2162 -2164 -1256 2242 0
-2146 -2172 -2131 -2162 -2164 -1257 2243 0
-2147 -2172 -2131 -2162 -2164 -1258 2240 0
-2147 -2172 -2131 -2162 -2164 -1259 2241 0
-2147 -2172 -2131 -2162 -2164 -1260 2242 0
-2147 -2172 -2131 -2162 -2164 -1261 2243 0
-2145 -2173 -2131 -2162 -2164 -1262 2240 0
-2145 -2173 -2131 -2162 -2164 -1263 2241 0
-2145 -2173 -2131 -2162 -2164 -1264 2242 0
-2145 -2173 -2131 -2162 -2164 -1265 2243 0
-2146 -2173 -2131 -2162 -2164 -1266 2240 0
-2146 -2173 -2131 -2162 -2164 -1267 2241 0
-2146 -2173 -2131 -2162 -2164 -1268 2242 0
-2146 -2173 -2131 -2162 -2164 -1269 2243 0
-2147 -2173 -2131 -2162 -2164 -1270 2240 0
-2147 -2173 -2131 -2162 -2164 -1271 2241 0
-2147 -2173 -2131 -2162 -2164 -1272 2242 0
-2147 -2173 -2131 -2162 -2164 -1273 2243 0
-2145 -2172 -2132 -2162 -2164 -1274 2240 0
-2145 -2172 -2132 -2162 -2164 -1275 2241 0
-2145 -2172 -2132 -2162 -2164 -1276 2242 0
-2145 -2172 -2132 -2162 -2164 -1277 2243 0
-2146 -2172 -2132 -2162 -2164 -1278 2240 0
-2146 -2172 -2132 -2162 -2164 -1279 2241 0
-2146 -2172 -2132 -2162 -2164 -1280 2242 0
-2146 -2172 -2132 -2162 -2164 -1281 2243 0
-2147 -2172 -2132 -2162 -2164 -1282 2240 0
-2147 -2172 -2132 -2162 -2164 -1283 2241 0
-2147 -2172 -2132 -2162 -2164 -1284 2242 0
-2147 -2172 -2132 -2162 -2164 -1285 2243 0
-2145 -2173 -2132 -2162 -2164 -1286 2240 0
-2145 -2173 -2132 -2162 -2164 -1287 2241 0
-2145 -2173 -2132 -2162 -2164 -1288 2242 0
-2145 -2173 -2132 -2162 -2164 -1289 2243 0
-2146 -2173 -2132 -2162 -2164 -1290 2240 0
-2146 -2173 -2132 -2162 -2164 -1291 2241 0
-2146 -2173 -2132 -2162 -2164 -1292 2242 0
-2146 -2173 -2132 -2162 -2164 -1293 2243 0
-2147 -2173 -2132 -2162 -2164 -1294 2240 0
-2147 -2173 -2132 -2162 -2164 -1295 2241 0
-2147 -2173 -2132 -2162 -2164 -1296 2242 0
-2147 -2173 -2132 -2162 -2164 -1297 2243 0
-2145 -2172 -2131 -2163 -2164 -1298 2240 0
-2145 -2172 -2131 -2163 -2164 -1299 2241 0
-2145 -2172 -2131 -2163 -2164 -1300 2242 0
-2145 -2172 -2131 -2163 -2164 -1301 2243 0
-2146 -2172 -2131 -2163 -2164 -1302 2240 0
-2146 -2172 -2131 -2163 -2164 -1303 2241 0
-2146 -2172 -2131 -2163 -2164 -1304 2242 0
-2146 -2172 -2131 -2163 -2164 -1305 2243 0
-2147 -2172 -2131 -2163 -2164 -1306 2240 0
-2147 -2172 -2131 -2163 -2164 -1307 2241 0
-2147 -2172 -2131 -2163 -2164 -1308 2242 0
-2147 -2172 -2131 -2163 -2164 -1309 2243 0
-2145 -2173 -2131 -2163 -2164 -1310 2240 0
-2145 -2173 -2131 -2163 -2164 -1311 2241 0
-2145 -2173 -2131 -2163 -2164 -1312 2242 0
-2145 -2173 -2131 -2163 -2164 -1313 2243 0
-2146 -2173 -2131 -2163 -2164 -1314 2240 0
-2146 -2173 -2131 -2163 -2164 -1315 2241 0
-2146 -2173 -2131 -2163 -2164 -1316 2242 0
-2146 -2173 -2131 -2163 -2164 -1317 2243 0
-2147 -2173 -2131 -2163 -2164 -1318 2240 0
-2147 -2173 -2131 -2163 -2164 -1319 2241 0
-2147 -2173 -2131 -2163 -2164 -1320 2242 0
-2147 -2173 -2131 -2163 -2164 -1321 2243 0
-2145 -2172 -2132 -2163 -2164 -1322 2240 0
-2145 -2172 -2132 -2163 -2164 -1323 2241 0
-2145 -2172 -2132 -2163 -2164 -1324 2242 0
-2145 -2172 -2132 -2163 -2164 -1325 2243 0
-2146 -2172 -2132 -2163 -2164 -1326 2240 0
-2146 -2172 -2132 -2163 -2164 -1327 2241 0
-2146 -2172 -2132 -2163 -2164 -1328 2242 0
-2146 -2172 -2132 -2163 -2164 -1329 2243 0
-2147 -2172 -2132 -2163 -2164 -1330 2240 0
-2147 -2172 -2132 -2163 -2164 -1331 2241 0
-2147 -2172 -2132 -2163 -2164 -1332 2242 0
-2147 -2172 -2132 -2163 -2164 -1333 2243 0
-2145 -2173 -2132 -2163 -2164 -1334 2240 0
-2145 -2173 -2132 -2163 -2164 -1335 2241 0
-2145 -2173 -2132 -2163 -2164 -1336 2242 0
-2145 -2173 -2132 -2163 -2164 -1337 2243 0
-2146 -2173 -2132 -2163 -2164 -1338 2240 0
-2146 -2173 -2132 -2163 -2164 -1339 2241 0
-2146 -2173 -2132 -2163 -2164 -1340 2242 0
-2146 -2173 -2132 -2163 -2164 -1341 2243 0
-2147 -2173 -2132 -2163 -2164 -1342 2240 0
-2147 -2173 -2132 -2163 -2164 -1343 2241 0
-2147 -2173 -2132 -2163 -2164 -1344 2242 0
-2147 -2173 -2132 -2163 -2164 -1345 2243 0
-2145 -2172 -2131 -2162 -2165 -1346 2240 0
-2145 -2172 -2131 -2162 -2165 -1347 2241 0
-2145 -2172 -2131 -2162 -2165 -1348 2242 0
-2145 -2172 -2131 -2162 -2165 -1349 2243 0
-2146 -2172 -2131 -2162 -2165 -1350 2240 0
-2146 -2172 -2131 -2162 -2165 -1351 2241 0
-2146 -2172 -2131 -2162 -2165 -1352 2242 0
-2146 -2172 -2131 -2162 -2165 -1353 2243 0
-2147 -2172 -2131 -2162 -2165 -1354 2240 0
-2147 -2172 -2131 -2162 -2165 -1355 2241 0
-2147 -2172 -2131 -2162 -2165 -1356 2242 0
-2147 -2172 -2131 -2162 -2165 -1357 2243 0
-2145 -2173 -2131 -2162 -2165 -1358 2240 0
-2145 -2173 -2131 -2162 -2165 -1359 2241 0
-2145 -2173 -2131 -2162 -2165 -1360 2242 0
-2145 -2173 -2131 -2162 -2165 -1361 2243 0
-2146 -2173 -2131 -2162 -2165 -1362 2240 0
-2146 -2173 -2131 -2162 -2165 -1363 2241 0
-2146 -2173 -2131 -2162 -2165 -1364 2242 0
-2146 -2173 -2131 -2162 -2165 -1365 2243 0
-2147 -2173 -2131 -2162 -2165 -1366 2240 0
-2147 -2173 -2131 -2162 -2165 -1367 2241 0
-2147 -2173 -2131 -2162 -2165 -1368 2242 0
-2147 -2173 -2131 -2162 -2165 -1369 2243 0
-2145 -2172 -2132 -2162 -2165 -1370 2240 0
-2145 -2172 -2132 -2162 -2165 -1371 2241 0
-2145 -2172 -2132 -2162 -2165 -1372 2242 0
-2145 -2172 -2132 -2162 -2165 -1373 2243 0
-2146 -2172 -2132 -2162 -2165 -1374 2240 0
-2146 -2172 -2132 -2162 -2165 -1375 2241 0
-2146 -2172 -2132 -2162 -2165 -1376 2242 0
-2146 -2172 -2132 -2162 -2165 -1377 2243 0
-2147 -2172 -2132 -2162 -2165 -1378 2240 0
-2147 -2172 -2132 -2162 -2165 -1379 2241 0
-2147 -2172 -2132 -2162 -2165 -1380 2242 0
-2147 -2172 -2132 -2162 -2165 -1381 2243 0
-2145 -2173 -2132 -2162 -2165 -1382 2240 0
-2145 -2173 -2132 -2162 -2165 -1383 2241 0
-2145 -2173 -2132 -2162 -2165 -1384 2242 0
-2145 -2173 -2132 -2162 -2165 -1385 2243 0
-2146 -2173 -2132 -2162 -2165 -1386 2240 0
-2146 -2173 -2132 -2162 -2165 -1387 2241 0
-2146 -2173 -2132 -2162 -2165 -1388 2242 0
-2146 -2173 -2132 -2162 -2165 -1389 2243 0
-2147 -2173 -2132 -2162 -2165 -1390 2240 0
-2147 -2173 -2132 -2162 -2165 -1391 2241 0
-2147 -2173 -2132 -2162 -2165 -1392 2242 0
-2147 -2173 -2132 -2162 -2165 -1393 2243 0
-2145 -2172 -2131 -2163 -2165 -1394 2240 0
-2145 -2172 -2131 -2163 -2165 -1395 2241 0
-2145 -2172 -2131 -2163 -2165 -1396 2242 0
-2145 -2172 -2131 -2163 -2165 -1397 2243 0
-2146 -2172 -2131 -2163 -2165 -1398 2240 0
-2146 -2172 -2131 -2163 -2165 -1399 2241 0
-2146 -2172 -2131 -2163 -2165 -1400 2242 0
-2146 -2172 -2131 -2163 -2165 -1401 2243 0
-2147 -2172 -2131 -2163 -2165 -1402 2240 0
-2147 -2172 -2131 -2163 -2165 -1403 2241 0
-2147 -2172 -2131 -2163 -2165 -1404 2242 0
-2147 -2172 -2131 -2163 -2165 -1405 2243 0
-2145 -2173 -2131 -2163 -2165 -1406 2240 0
-2145 -2173 -2131 -2163 -2165 -1407 2241 0
-2145 -2173 -2131 -2163 -2165 -1408 2242 0
-2145 -2173 -2131 -2163 -2165 -1409 2243 0
-2146 -2173 -2131 -2163 -2165 -1410 2240 0
-2146 -2173 -2131 -2163 -2165 -1411 2241 0
-2146 -2173 -2131 -2163 -2165 -1412 2242 0
-2146 -2173 -2131 -2163 -2165 -1413 2243 0
-2147 -2173 -2131 -2163 -2165 -1414 2240 0
-2147 -2173 -2131 -2163 -2165 -1415 2241 0
-2147 -2173 -2131 -2163 -2165 -1416 2242 0
-2147 -2173 -2131 -2163 -2165 -1417 2243 0
-2145 -2172 -2132 -2163 -2165 -1418 2240 0
-2145 -2172 -2132 -2163 -2165 -1419 2241 0
-2145 -2172 -2132 -2163 -2165 -1420 2242 0
-2145 -2172 -2132 -2163 -2165 -1421 2243 0
-2146 -2172 -2132 -2163 -2165 -1422 2240 0
-2146 -2172 -2132 -2163 -2165 -1423 2241 0
-2146 -2172 -2132 -2163 -2165 -1424 2242 0
-2146 -2172 -2132 -2163 -2165 -1425 2243 0
-2147 -2172 -2132 -2163 -2165 -1426 2240 0
-2147 -2172 -2132 -2163 -2165 -1427 2241 0
-2147 -2172 -2132 -2163 -2165 -1428 2242 0
-2147 -2172 -2132 -2163 -2165 -1429 2243 0
-2145 -2173 -2132 -2163 -2165 -1430 2240 0
-2145 -2173 -2132 -2163 -2165 -1431 2241 0
-2145 -2173 -2132 -2163 -2165 -1432 2242 0
-2145 -2173 -2132 -2163 -2165 -1433 2243 0
-2146 -2173 -2132 -2163 -2165 -1434 2240 0
-2146 -2173 -2132 -2163 -2165 -1435 2241 0
-2146 -2173 -2132 -2163 -2165 -1436 2242 0
-2146 -2173 -2132 -2163 -2165 -1437 2243 0
-2147 -2173 -2132 -2163 -2165 -1438 2240 0
-2147 -2173 -2132 -2163 -2165 -1439 2241 0
-2147 -2173 -2132 -2163 -2165 -1440 2242 0
-2147 -2173 -2132 -2163 -2165 -1441 2243 0
-2145 -2172 -2131 -2162 -2166 -1442 2240 0
-2145 -2172 -2131 -2162 -2166 -1443 2241 0
-2145 -2172 -2131 -2162 -2166 -1444 2242 0
-2145 -2172 -2131 -2162 -2166 -1445 2243 0
-2146 -2172 -2131 -2162 -2166 -1446 2240 0
-2146 -2172 -2131 -2162 -2166 -1447 2241 0
-2146 -2172 -2131 -2162 -2166 -1448 2242 0
-2146 -2172 -2131 -2162 -2166 -1449 2243 0
-2147 -2172 -2131 -2162 -2166 -1362 2240 0
-2147 -2172 -2131 -2162 -2166 -1363 2241 0
-2147 -2172 -2131 -2162 -2166 -1364 2242 0
-2147 -2172 -2131 -2162 -2166 -1365 2243 0
-2145 -2173 -2131 -2162 -2166 -1450 2240 0
-2145 -2173 -2131 -2162 -2166 -1451 2241 0
-2145 -2173 -2131 -2162 -2166 -1452 2242 0
-2145 -2173 -2131 -2162 -2166 -1453 2243 0
-2146 -2173 -2131 -2162 -2166 -1454 2240 0
-2146 -2173 -2131 -2162 -2166 -1455 2241 0
-2146 -2173 -2131 -2162 -2166 -1456 2242 0
-2146 -2173 -2131 -2162 -2166 -1457 2243 0
-2147 -2173 -2131 -2162 -2166 -1458 2240 0
-2147 -2173 -2131 -2162 -2166 -1459 2241 0
-2147 -2173 -2131 -2162 -2166 -1460 2242 0
-2147 -2173 -2131 -2162 -2166 -1461 2243 0
-2145 -2172 -2132 -2162 -2166 -1462 2240 0
-2145 -2172 -2132 -2162 -2166 -1463 2241 0
-2145 -2172 -2132 -2162 -2166 -1464 2242 0
-2145 -2172 -2132 -2162 -2166 -1465 2243 0
-2146 -2172 -2132 -2162 -2166 -1466 2240 0
-2146 -2172 -2132 -2162 -2166 -1467 2241 0
-2146 -2172 -2132 -2162 -2166 -1468 2242 0
-2146 -2172 -2132 -2162 -2166 -1469 2243 0
-2147 -2172 -2132 -2162 -2166 -1470 2240 0
-2147 -2172 -2132 -2162 -2166 -1471 2241 0
-2147 -2172 -2132 -2162 -2166 -1472 2242 0
-2147 -2172 -2132 -2162 -2166 -1473 2243 0
-2145 -2173 -2132 -2162 -2166 -1474 2240 0
-2145 -2173 -2132 -2162 -2166 -1475 2241 0
-2145 -2173 -2132 -2162 -2166 -1476 2242 0
-2145 -2173 -2132 -2162 -2166 -1477 2243 0
-2146 -2173 -2132 -2162 -2166 -1478 2240 0
-2146 -2173 -2132 -2162 -2166 -1479 2241 0
-2146 -2173 -2132 -2162 -2166 -1480 2242 0
-2146 -2173 -2132 -2162 -2166 -1481 2243 0
-2147 -2173 -2132 -2162 -2166 -1414 2240 0
-2147 -2173 -2132 -2162 -2166 -1415 2241 0
-2147 -2173 -2132 -2162 -2166 -1417 2242 0
-2147 -2173 -2132 -2162 -2166 -1416 2243 0
-2145 -2172 -2131 -2163 -2166 -1482 2240 0
-2145 -2172 -2131 -2163 -2166 -1483 2241 0
-2145 -2172 -2131 -2163 -2166 -1484 2242 0
-2145 -2172 -2131 -2163 -2166 -1485 2243 0
-2146 -2172 -2131 -2163 -2166 -1486 2240 0
-2146 -2172 -2131 -2163 -2166 -1487 2241 0
-2146 -2172 -2131 -2163 -2166 -1488 2242 0
-2146 -2172 -2131 -2163 -2166 -1489 2243 0
-2147 -2172 -2131 -2163 -2166 -1490 2240 0
-2147 -2172 -2131 -2163 -2166 -1491 2241 0
-2147 -2172 -2131 -2163 -2166 -1492 2242 0
-2147 -2172 -2131 -2163 -2166 -1493 2243 0
-2145 -2173 -2131 -2163 -2166 -1494 2240 0
-2145 -2173 -2131 -2163 -2166 -1495 2241 0
-2145 -2173 -2131 -2163 -2166 -1496 2242 0
-2145 -2173 -2131 -2163 -2166 -1497 2243 0
-2146 -2173 -2131 -2163 -2166 -1498 2240 0
-2146 -2173 -2131 -2163 -2166 -1499 2241 0
-2146 -2173 -2131 -2163 -2166 -1500 2242 0
-2146 -2173 -2131 -2163 -2166 -1501 2243 0
-2147 -2173 -2131 -2163 -2166 -1502 2240 0
-2147 -2173 -2131 -2163 -2166 -1503 2241 0
-2147 -2173 -2131 -2163 -2166 -1504 2242 0
-2147 -2173 -2131 -2163 -2166 -1505 2243 0
-2145 -2172 -2132 -2163 -2166 -1506 2240 0
-2145 -2172 -2132 -2163 -2166 -1507 2241 0
-2145 -2172 -2132 -2163 -2166 -1508 2242 0
-2145 -2172 -2132 -2163 -2166 -1509 2243 0
-2146 -2172 -2132 -2163 -2166 -1510 2240 0
-2146 -2172 -2132 -2163 -2166 -1511 2241 0
-2146 -2172 -2132 -2163 -2166 -1512 2242 0
-2146 -2172 -2132 -2163 -2166 -1513 2243 0
-2147 -2172 -2132 -2163 -2166 -1514 2240 0
-2147 -2172 -2132 -2163 -2166 -1515 2241 0
-2147 -2172 -2132 -2163 -2166 -1516 2242 0
-2147 -2172 -2132 -2163 -2166 -1517 2243 0
-2145 -2173 -2132 -2163 -2166 -1518 2240 0
-2145 -2173 -2132 -2163 -2166 -1519 2241 0
-2145 -2173 -2132 -2163 -2166 -1520 2242 0
-2145 -2173 -2132 -2163 -2166 -1521 2243 0
-2146 -2173 -2132 -2163 -2166 -1522 2240 0
-2146 -2173 -2132 -2163 -2166 -1523 2241 0
-2146 -2173 -2132 -2163 -2166 -1524 2242 0
-2146 -2173 -2132 -2163 -2166 -1525 2243 0
-2147 -2173 -2132 -2163 -2166 -1526 2240 0
-2147 -2173 -2132 -2163 -2166 -1527 2241 0
-2147 -2173 -2132 -2163 -2166 -1528 2242 0
-2147 -2173 -2132 -2163 -2166 -1529 2243 0
-2137 -1530 2244 0
-2137 -1531 2245 0
-2137 -1532 2246 0
-2138 -1533 2244 0
-2138 -1534 2245 0
-2138 -1535 2246 0
-2154 -2131 -2172 -2162 -2145 -2167 -1536 2247 0
-2154 -2131 -2172 -2162 -2145 -2167 -1537 2248 0
-2154 -2131 -2172 -2162 -2145 -2167 -1538 2249 0
-2154 -2131 -2172 -2162 -2145 -2167 -1539 2250 0
-2155 -2131 -2172 -2162 -2145 -2167 -1540 2247 0
-2155 -2131 -2172 -2162 -2145 -2167 -1541 2248 0
-2155 -2131 -2172 -2162 -2145 -2167 -1542 2249 0
-2155 -2131 -2172 -2162 -2145 -2167 -1543 2250 0
-2154 -2132 -2172 -2162 -2145 -2167 -1544 2247 0
-2154 -2132 -2172 -2162 -2145 -2167 -1545 2248 0
-2154 -2132 -2172 -2162 -2145 -2167 -1546 2249 0
-2154 -2132 -2172 -2162 -2145 -2167 -1547 2250 0
-2155 -2132 -2172 -2162 -2145 -2167 -1548 2247 0
-2155 -2132 -2172 -2162 -2145 -2167 -1549 2248 0
-2155 -2132 -2172 -2162 -2145 -2167 -1550 2249 0
-2155 -2132 -2172 -2162 -2145 -2167 -1551 2250 0
-2154 -2131 -2173 -2162 -2145 -2167 -1552 2247 0
-2154 -2131 -2173 -2162 -2145 -2167 -1553 2248 0
-2154 -2131 -2173 -2162 -2145 -2167 -1554 2249 0
-2154 -2131 -2173 -2162 -2145 -2167 -1555 2250 0
-2155 -2131 -2173 -2162 -2145 -2167 -1556 2247 0
-2155 -2131 -2173 -2162 -2145 -2167 -1557 2248 0
-2155 -2131 -2173 -2162 -2145 -2167 -1558 2249 0
-2155 -2131 -2173 -2162 -2145 -2167 -1559 2250 0
-2154 -2132 -2173 -2162 -2145 -2167 -1560 2247 0
-2154 -2132 -2173 -2162 -2145 -2167 -1561 2248 0
-2154 -2132 -2173 -2162 -2145 -2167 -1562 2249 0
-2154 -2132 -2173 -2162 -2145 -2167 -1563 2250 0
-2155 -2132 -2173 -2162 -2145 -2167 -1564 2247 0
-2155 -2132 -2173 -2162 -2145 -2167 -1565 2248 0
-2155 -2132 -2173 -2162 -2145 -2167 -1566 2249 0
-2155 -2132 -2173 -2162 -2145 -2167 -1567 2250 0
-2154 -2131 -2172 -2163 -2145 -2167 -1568 2247 0
-2154 -2131 -2172 -2163 -2145 -2167 -1569 2248 0
-2154 -2131 -2172 -2163 -2145 -2167 -1570 2249 0
-2154 -2131 -2172 -2163 -2145 -2167 -1571 2250 0
-2155 -2131 -2172 -2163 -2145 -2167 -1572 2247 0
-2155 -2131 -2172 -2163 -2145 -2167 -1573 2248 0
-2155 -2131 -2172 -2163 -2145 -2167 -1574 2249 0
-2155 -2131 -2172 -2163 -2145 -2167 -1575 2250 0
-2154 -2132 -2172 -2163 -2145 -2167 -1576 2247 0
-2154 -2132 -2172 -2163 -2145 -2167 -1577 2248 0
-2154 -2132 -2172 -2163 -2145 -2167 -1578 2249 0
-2154 -2132 -2172 -2163 -2145 -2167 -1579 2250 0
-2155 -2132 -2172 -2163 -2145 -2167 -1580 2247 0
-2155 -2132 -2172 -2163 -2145 -2167 -1581 2248 0
-2155 -2132 -2172 -2163 -2145 -2167 -1582 2249 0
-2155 -2132 -2172 -2163 -2145 -2167 -1583 2250 0
-2154 -2131 -2173 -2163 -2145 -2167 -1584 2247 0
-2154 -2131 -2173 -2163 -2145 -2167 -1585 2248 0
-2154 -2131 -2173 -2163 -2145 -2167 -1586 2249 0
-2154 -2131 -2173 -2163 -2145 -2167 -1587 2250 0
-2155 -2131 -2173 -2163 -2145 -2167 -1588 2247 0
-2155 -2131 -2173 -2163 -2145 -2167 -1589 2248 0
-2155 -2131 -2173 -2163 -2145 -2167 -1590 2249 0
-2155 -2131 -2173 -2163 -2145 -2167 -1591 2250 0
-2154 -2132 -2173 -2163 -2145 -2167 -1592 2247 0
-2154 -2132 -2173 -2163 -2145 -2167 -1593 2248 0
-2154 -2132 -2173 -2163 -2145 -2167 -1594 2249 0
-2154 -2132 -2173 -2163 -2145 -2167 -1595 2250 0
-2155 -2132 -2173 -2163 -2145 -2167 -1596 2247 0
-2155 -2132 -2173 -2163 -2145 -2167 -1597 2248 0
-2155 -2132 -2173 -2163 -2145 -2167 -1598 2249 0
-2155 -2132 -2173 -2163 -2145 -2167 -1599 2250 0
-2154 -2131 -2172 -2162 -2146 -2167 -1600 2247 0
-2154 -2131 -2172 -2162 -2146 -2167 -1601 2248 0
-2154 -2131 -2172 -2162 -2146 -2167 -1602 2249 0
-2154 -2131 -2172 -2162 -2146 -2167 -1603 2250 0
-2155 -2131 -2172 -2162 -2146 -2167 -1604 2247 0
-2155 -2131 -2172 -2162 -2146 -2167 -1605 2248 0
-2155 -2131 -2172 -2162 -2146 -2167 -1606 2249 0
-2155 -2131 -2172 -2162 -2146 -2167 -1607 2250 0
-2154 -2132 -2172 -2162 -2146 -2167 -1608 2247 0
-2154 -2132 -2172 -2162 -2146 -2167 -1609 2248 0
-2154 -2132 -2172 -2162 -2146 -2167 -1610 2249 0
-2154 -2132 -2172 -2162 -2146 -2167 -1611 2250 0
-2155 -2132 -2172 -2162 -2146 -2167 -1612 2247 0
-2155 -2132 -2172 -2162 -2146 -2167 -1613 2248 0
-2155 -2132 -2172 -2162 -2146 -2167 -1614 2249 0
-2155 -2132 -2172 -2162 -2146 -2167 -1615 2250 0
-2154 -2131 -2173 -2162 -2146 -2167 -1616 2247 0
-2154 -2131 -2173 -2162 -2146 -2167 -1617 2248 0
-2154 -2131 -2173 -2162 -2146 -2167 -1618 2249 0
-2154 -2131 -2173 -2162 -2146 -2167 -1619 2250 0
-2155 -2131 -2173 -2162 -2146 -2167 -1620 2247 0
-2155 -2131 -2173 -2162 -2146 -2167 -1621 2248 0
-2155 -2131 -2173 -2162 -2146 -2167 -1622 2249 0
-2155 -2131 -2173 -2162 -2146 -2167 -1623 2250 0
-2154 -2132 -2173 -2162 -2146 -2167 -1624 2247 0
-2154 -2132 -2173 -2162 -2146 -2167 -1625 2248 0
-2154 -2132 -2173 -2162 -2146 -2167 -1626 2249 0
-2154 -2132 -2173 -2162 -2146 -2167 -1627 2250 0
-2155 -2132 -2173 -2162 -2146 -2167 -1628 2247 0
-2155 -2132 -2173 -2162 -2146 -2167 -1629 2248 0
-2155 -2132 -2173 -2162 -2146 -2167 -1630 2249 0
-2155 -2132 -2173 -2162 -2146 -2167 -1631 2250 0
-2154 -2131 -2172 -2163 -2146 -2167 -1632 2247 0
-2154 -2131 -2172 -2163 -2146 -2167 -1633 2248 0
-2154 -2131 -2172 -2163 -2146 -2167 -1634 2249 0
-2154 -2131 -2172 -2163 -2146 -2167 -1635 2250 0
-2155 -2131 -2172 -2163 -2146 -2167 -1636 2247 0
-2155 -2131 -2172 -2163 -2146 -2167 -1637 2248 0
-2155 -2131 -2172 -2163 -2146 -2167 -1638 2249 0
-2155 -2131 -2172 -2163 -2146 -2167 -1639 2250 0
-2154 -2132 -2172 -2163 -2146 -2167 -1640 2247 0
-2154 -2132 -2172 -2163 -2146 -2167 -1641 2248 0
-2154 -2132 -2172 -2163 -2146 -2167 -1642 2249 0
-2154 -2132 -2172 -2163 -2146 -2167 -1643 2250 0
-2155 -2132 -2172 -2163 -2146 -2167 -1644 2247 0
-2155 -2132 -2172 -2163 -2146 -2167 -1645 2248 0
-2155 -2132 -2172 -2163 -2146 -2167 -1646 2249 0
-2155 -2132 -2172 -2163 -2146 -2167 -1647 2250 0
-2154 -2131 -2173 -2163 -2146 -2167 -1648 2247 0
-2154 -2131 -2173 -2163 -2146 -2167 -1649 2248 0
-2154 -2131 -2173 -2163 -2146 -2167 -1650 2249 0
-2154 -2131 -2173 -2163 -2146 -2167 -1651 2250 0
-2155 -2131 -2173 -2163 -2146 -2167 -1652 2247 0
-2155 -2131 -2173 -2163 -2146 -2167 -1653 2248 0
-2155 -2131 -2173 -2163 -2146 -2167 -1654 2249 0
-2155 -2131 -2173 -2163 -2146 -2167 -1655 2250 0
-2154 -2132 -2173 -2163 -2146 -2167 -1656 2247 0
-2154 -2132 -2173 -2163 -2146 -2167 -1657 2248 0
-2154 -2132 -2173 -2163 -2146 -2167 -1658 2249 0
-2154 -2132 -2173 -2163 -2146 -2167 -1659 2250 0
-2155 -2132 -2173 -2163 -2146 -2167 -1660 2247 0
-2155 -2132 -2173 -2163 -2146 -2167 -1661 2248 0
-2155 -2132 -2173 -2163 -2146 -2167 -1662 2249 0
-2155 -2132 -2173 -2163 -2146 -2167 -1663 2250 0
-2154 -2131 -2172 -2162 -2147 -2167 -1664 2247 0
-2154 -2131 -2172 -2162 -2147 -2167 -1665 2248 0
-2154 -2131 -2172 -2162 -2147 -2167 -1666 2249 0
-2154 -2131 -2172 -2162 -2147 -2167 -1667 2250 0
-2155 -2131 -2172 -2162 -2147 -2167 -1668 2247 0
-2155 -2131 -2172 -2162 -2147 -2167 -1669 2248 0
-2155 -2131 -2172 -2162 -2147 -2167 -1670 2249 0
-2155 -2131 -2172 -2162 -2147 -2167 -1671 2250 0
-2154 -2132 -2172 -2162 -2147 -2167 -1672 2247 0
-2154 -2132 -2172 -2162 -2147 -2167 -1673 2248 0
-2154 -2132 -2172 -2162 -2147 -2167 -1674 2249 0
-2154 -2132 -2172 -2162 -2147 -2167 -1675 2250 0
-2155 -2132 -2172 -2162 -2147 -2167 -1676 2247 0
-2155 -2132 -2172 -2162 -2147 -2167 -1677 2248 0
-2155 -2132 -2172 -2162 -2147 -2167 -1678 2249 0
-2155 -2132 -2172 -2162 -2147 -2167 -1679 2250 0
-2154 -2131 -2173 -2162 -2147 -2167 -1680 2247 0
-2154 -2131 -2173 -2162 -2147 -2167 -1681 2248 0
-2154 -2131 -2173 -2162 -2147 -2167 -1682 2249 0
-2154 -2131 -2173 -2162 -2147 -2167 -1683 2250 0
-2155 -2131 -2173 -2162 -2147 -2167 -1684 2247 0
-2155 -2131 -2173 -2162 -2147 -2167 -1685 2248 0
-2155 -2131 -2173 -2162 -2147 -2167 -1686 2249 0
-2155 -2131 -2173 -2162 -2147 -2167 -1687 2250 0
-2154 -2132 -2173 -2162 -2147 -2167 -1688 2247 0
-2154 -2132 -2173 -2162 -2147 -2167 -1689 2248 0
-2154 -2132 -2173 -2162 -2147 -2167 -1690 2249 0
-2154 -2132 -2173 -2162 -2147 -2167 -1691 2250 0
-2155 -2132 -2173 -2162 -2147 -2167 -1692 2247 0
-2155 -2132 -2173 -2162 -2147 -2167 -1693 2248 0
-2155 -2132 -2173 -2162 -2147 -2167 -1694 2249 0
-2155 -2132 -2173 -2162 -2147 -2167 -1695 2250 0
-2154 -2131 -2172 -2163 -2147 -2167 -1696 2247 0
-2154 -2131 -2172 -2163 -2147 -2167 -1697 2248 0
-2154 -2131 -2172 -2163 -2147 -2167 -1698 2249 0
-2154 -2131 -2172 -2163 -2147 -2167 -1699 2250 0
-2155 -2131 -2172 -2163 -2147 -2167 -1700 2247 0
-2155 -2131 -2172 -2163 -2147 -2167 -1701 2248 0
-2155 -2131 -2172 -2163 -2147 -2167 -1702 2249 0
-2155 -2131 -2172 -2163 -2147 -2167 -1703 2250 0
-2154 -2132 -2172 -2163 -2147 -2167 -1704 2247 0
-2154 -2132 -2172 -2163 -2147 -2167 -1705 2248 0
-2154 -2132 -2172 -2163 -2147 -2167 -1706 2249 0
-2154 -2132 -2172 -2163 -2147 -2167 -1707 2250 0
-2155 -2132 -2172 -2163 -2147 -2167 -1708 2247 0
-2155 -2132 -2172 -2163 -2147 -2167 -1709 2248 0
-2155 -2132 -2172 -2163 -2147 -2167 -1710 2249 0
-2155 -2132 -2172 -2163 -2147 -2167 -1711 2250 0
-2154 -2131 -2173 -2163 -2147 -2167 -1712 2247 0
-2154 -2131 -2173 -2163 -2147 -2167 -1713 2248 0
-2154 -2131 -2173 -2163 -2147 -2167 -1714 2249 0
-2154 -2131 -2173 -2163 -2147 -2167 -1715 2250 0
-2155 -2131 -2173 -2163 -2147 -2167 -1716 2247 0
-2155 -2131 -2173 -2163 -2147 -2167 -1717 2248 0
-2155 -2131 -2173 -2163 -2147 -2167 -1718 2249 0
-2155 -2131 -2173 -2163 -2147 -2167 -1719 2250 0
-2154 -2132 -2173 -2163 -2147 -2167 -1720 2247 0
-2154 -2132 -2173 -2163 -2147 -2167 -1721 2248 0
-2154 -2132 -2173 -2163 -2147 -2167 -1722 2249 0
-2154 -2132 -2173 -2163 -2147 -2167 -1723 2250 0
-2155 -2132 -2173 -2163 -2147 -2167 -1724 2247 0
-2155 -2132 -2173 -2163 -2147 -2167 -1725 2248 0
-2155 -2132 -2173 -2163 -2147 -2167 -1726 2249 0
-2155 -2132 -2173 -2163 -2147 -2167 -1727 2250 0
-2154 -2131 -2172 -2162 -2145 -2168 -1728 2247 0
-2154 -2131 -2172 -2162 -2145 -2168 -1729 2248 0
-2154 -2131 -2172 -2162 -2145 -2168 -1730 2249 0
-2154 -2131 -2172 -2162 -2145 -2168 -1731 2250 0
-2155 -2131 -2172 -2162 -2145 -2168 -1732 2247 0
-2155 -2131 -2172 -2162 -2145 -2168 -1733 2248 0
-2155 -2131 -2172 -2162 -2145 -2168 -1734 2249 0
-2155 -2131 -2172 -2162 -2145 -2168 -1735 2250 0
-2154 -2132 -2172 -2162 -2145 -2168 -1736 2247 0
-2154 -2132 -2172 -2162 -2145 -2168 -1737 2248 0
-2154 -2132 -2172 -2162 -2145 -2168 -1738 2249 0
-2154 -2132 -2172 -2162 -2145 -2168 -1739 2250 0
-2155 -2132 -2172 -2162 -2145 -2168 -1740 2247 0
-2155 -2132 -2172 -2162 -2145 -2168 -1741 2248 0
-2155 -2132 -2172 -2162 -2145 -2168 -1742 2249 0
-2155 -2132 -2172 -2162 -2145 -2168 -1743 2250 0
-2154 -2131 -2173 -2162 -2145 -2168 -1744 2247 0
-2154 -2131 -2173 -2162 -2145 -2168 -1745 2248 0
-2154 -2131 -2173 -2162 -2145 -2168 -1746 2249 0
-2154 -2131 -2173 -2162 -2145 -2168 -1747 2250 0
-2155 -2131 -2173 -2162 -2145 -2168 -1748 2247 0
-2155 -2131 -2173 -2162 -2145 -2168 -1749 2248 0
-2155 -2131 -2173 -2162 -2145 -2168 -1750 2249 0
-2155 -2131 -2173 -2162 -2145 -2168 -1751 2250 0
-2154 -2132 -2173 -2162 -2145 -2168 -1752 2247 0
-2154 -2132 -2173 -2162 -2145 -2168 -1753 2248 0
-2154 -2132 -2173 -2162 -2145 -2168 -1754 2249 0
-2154 -2132 -2173 -2162 -2145 -2168 -1755 2250 0
-2155 -2132 -2173 -2162 -2145 -2168 -1756 2247 0
-2155 -2132 -2173 -2162 -2145 -2168 -1757 2248 0
-2155 -2132 -2173 -2162 -2145 -2168 -1758 2249 0
-2155 -2132 -2173 -2162 -2145 -2168 -1759 2250 0
-2154 -2131 -2172 -2163 -2145 -2168 -1760 2247 0
-2154 -2131 -2172 -2163 -2145 -2168 -1761 2248 0
-2154 -2131 -2172 -2163 -2145 -2168 -1762 2249 0
-2154 -2131 -2172 -2163 -2145 -2168 -1763 2250 0
-2155 -2131 -2172 -2163 -2145 -2168 -1764 2247 0
-2155 -2131 -2172 -2163 -2145 -2168 -1765 2248 0
-2155 -2131 -2172 -2163 -2145 -2168 -1766 2249 0
-2155 -2131 -2172 -2163 -2145 -2168 -1767 2250 0
-2154 -2132 -2172 -2163 -2145 -2168 -1768 2247 0
-2154 -2132 -2172 -2163 -2145 -2168 -1769 2248 0
-2154 -2132 -2172 -2163 -2145 -2168 -1770 2249 0
-2154 -2132 -2172 -2163 -2145 -2168 -1771 2250 0
-2155 -2132 -2172 -2163 -2145 -2168 -1772 2247 0
-2155 -2132 -2172 -2163 -2145 -2168 -1773 2248 0
-2155 -2132 -2172 -2163 -2145 -2168 -1774 2249 0
-2155 -2132 -2172 -2163 -2145 -2168 -1775 2250 0
-2154 -2131 -2173 -2163 -2145 -2168 -1776 2247 0
-2154 -2131 -2173 -2163 -2145 -2168 -1777 2248 0
-2154 -2131 -2173 -2163 -2145 -2168 -1778 2249 0
-2154 -2131 -2173 -2163 -2145 -2168 -1779 2250 0
-2155 -2131 -2173 -2163 -2145 -2168 -1780 2247 0
-2155 -2131 -2173 -2163 -2145 -2168 -1781 2248 0
-2155 -2131 -2173 -2163 -2145 -2168 -1782 2249 0
-2155 -2131 -2173 -2163 -2145 -2168 -1783 2250 0
-2154 -2132 -2173 -2163 -2145 -2168 -1784 2247 0
-2154 -2132 -2173 -2163 -2145 -2168 -1785 2248 0
-2154 -2132 -2173 -2163 -2145 -2168 -1786 2249 0
-2154 -2132 -2173 -2163 -2145 -2168 -1787 2250 0
-2155 -2132 -2173 -2163 -2145 -2168 -1788 2247 0
-2155 -2132 -2173 -2163 -2145 -2168 -1789 2248 0
-2155 -2132 -2173 -2163 -2145 -2168 -1790 2249 0
-2155 -2132 -2173 -2163 -2145 -2168 -1791 2250 0
-2154 -2131 -2172 -2162 -2146 -2168 -1792 2247 0
-2154 -2131 -2172 -2162 -2146 -2168 -1793 2248 0
-2154 -2131 -2172 -2162 -2146 -2168 -1794 2249 0
-2154 -2131 -2172 -2162 -2146 -2168 -1795 2250 0
-2155 -2131 -2172 -2162 -2146 -2168 -1796 2247 0
-2155 -2131 -2172 -2162 -2146 -2168 -1797 2248 0
-2155 -2131 -2172 -2162 -2146 -2168 -1798 2249 0
-2155 -2131 -2172 -2162 -2146 -2168 -1799 2250 0
-2154 -2132 -2172 -2162 -2146 -2168 -1800 2247 0
-2154 -2132 -2172 -2162 -2146 -2168 -1801 2248 0
-2154 -2132 -2172 -2162 -2146 -2168 -1802 2249 0
-2154 -2132 -2172 -2162 -2146 -2168 -1803 2250 0
-2155 -2132 -2172 -2162 -2146 -2168 -1804 2247 0
-2155 -2132 -2172 -2162 -2146 -2168 -1805 2248 0
-2155 -2132 -2172 -2162 -2146 -2168 -1806 2249 0
-2155 -2132 -2172 -2162 -2146 -2168 -1807 2250 0
-2154 -2131 -2173 -2162 -2146 -2168 -1808 2247 0
-2154 -2131 -2173 -2162 -2146 -2168 -1809 2248 0
-2154 -2131 -2173 -2162 -2146 -2168 -1810 2249 0
-2154 -2131 -2173 -2162 -2146 -2168 -1811 2250 0
-2155 -2131 -2173 -2162 -2146 -2168 -1812 2247 0
-2155 -2131 -2173 -2162 -2146 -2168 -1813 2248 0
-2155 -2131 -2173 -2162 -2146 -2168 -1814 2249 0
-2155 -2131 -2173 -2162 -2146 -2168 -1815 2250 0
-2154 -2132 -2173 -2162 -2146 -2168 -1816 2247 0
-2154 -2132 -2173 -2162 -2146 -2168 -1817 2248 0
-2154 -2132 -2173 -2162 -2146 -2168 -1818 2249 0
-2154 -2132 -2173 -2162 -2146 -2168 -1819 2250 0
-2155 -2132 -2173 -2162 -2146 -2168 -1820 2247 0
-2155 -2132 -2173 -2162 -2146 -2168 -1821 2248 0
-2155 -2132 -2173 -2162 -2146 -2168 -1822 2249 0
-2155 -2132 -2173 -2162 -2146 -2168 -1823 2250 0
-2154 -2131 -2172 -2163 -2146 -2168 -1824 2247 0
-2154 -2131 -2172 -2163 -2146 -2168 -1825 2248 0
-2154 -2131 -2172 -2163 -2146 -2168 -1826 2249 0
-2154 -2131 -2172 -2163 -2146 -2168 -1827 2250 0
-2155 -2131 -2172 -2163 -2146 -2168 -1828 2247 0
-2155 -2131 -2172 -2163 -2146 -2168 -1829 2248 0
-2155 -2131 -2172 -2163 -2146 -2168 -1830 2249 0
-2155 -2131 -2172 -2163 -2146 -2168 -1831 2250 0
-2154 -2132 -2172 -2163 -2146 -2168 -1832 2247 0
-2154 -2132 -2172 -2163 -2146 -2168 -1833 2248 0
-2154 -2132 -2172 -2163 -2146 -2168 -1834 2249 0
-2154 -2132 -2172 -2163 -2146 -2168 -1835 2250 0
-2155 -2132 -2172 -2163 -2146 -2168 -1836 2247 0
-2155 -2132 -2172 -2163 -2146 -2168 -1837 2248 0
-2155 -2132 -2172 -2163 -2146 -2168 -1838 2249 0
-2155 -2132 -2172 -2163 -2146 -2168 -1839 2250 0
-2154 -2131 -2173 -2163 -2146 -2168 -1840 2247 0
-2154 -2131 -2173 -2163 -2146 -2168 -1841 2248 0
-2154 -2131 -2173 -2163 -2146 -2168 -1842 2249 0
-2154 -2131 -2173 -2163 -2146 -2168 -1843 2250 0
-2155 -2131 -2173 -2163 -2146 -2168 -1844 2247 0
-2155 -2131 -2173 -2163 -2146 -2168 -1845 2248 0
-2155 -2131 -2173 -2163 -2146 -2168 -1846 2249 0
-2155 -2131 -2173 -2163 -2146 -2168 -1847 2250 0
-2154 -2132 -2173 -2163 -2146 -2168 -1848 2247 0
-2154 -2132 -2173 -2163 -2146 -2168 -1849 2248 0
-2154 -2132 -2173 -2163 -2146 -2168 -1850 2249 0
-2154 -2132 -2173 -2163 -2146 -2168 -1851 2250 0
-2155 -2132 -2173 -2163 -2146 -2168 -1852 2247 0
-2155 -2132 -2173 -2163 -2146 -2168 -1853 2248 0
-2155 -2132 -2173 -2163 -2146 -2168 -1854 2249 0
-2155 -2132 -2173 -2163 -2146 -2168 -1855 2250 0
-2154 -2131 -2172 -2162 -2147 -2168 -1856 2247 0
-2154 -2131 -2172 -2162 -2147 -2168 -1857 2248 0
-2154 -2131 -2172 -2162 -2147 -2168 -1858 2249 0
-2154 -2131 -2172 -2162 -2147 -2168 -1859 2250 0
-2155 -2131 -2172 -2162 -2147 -2168 -1860 2247 0
-2155 -2131 -2172 -2162 -2147 -2168 -1861 2248 0
-2155 -2131 -2172 -2162 -2147 -2168 -1862 2249 0
-2155 -2131 -2172 -2162 -2147 -2168 -1863 2250 0
-2154 -2132 -2172 -2162 -2147 -2168 -1864 2247 0
-2154 -2132 -2172 -2162 -2147 -2168 -1865 2248 0
-2154 -2132 -2172 -2162 -2147 -2168 -1866 2249 0
-2154 -2132 -2172 -2162 -2147 -2168 -1867 2250 0
-2155 -2132 -2172 -2162 -2147 -2168 -1868 2247 0
-2155 -2132 -2172 -2162 -2147 -2168 -1869 2248 0
-2155 -2132 -2172 -2162 -2147 -2168 -1870 2249 0
-2155 -2132 -2172 -2162 -2147 -2168 -1871 2250 0
-2154 -2131 -2173 -2162 -2147 -2168 -1872 2247 0
-2154 -2131 -2173 -2162 -2147 -2168 -1873 2248 0
-2154 -2131 -2173 -2162 -2147 -2168 -1874 2249 0
-2154 -2131 -2173 -2162 -2147 -2168 -1875 2250 0
-2155 -2131 -2173 -2162 -2147 -2168 -1876 2247 0
-2155 -2131 -2173 -2162 -2147 -2168 -1877 2248 0
-2155 -2131 -2173 -2162 -2147 -2168 -1878 2249 0
-2155 -2131 -2173 -2162 -2147 -2168 -1879 2250 0
-2154 -2132 -2173 -2162 -2147 -2168 -1880 2247 0
-2154 -2132 -2173 -2162 -2147 -2168 -1881 2248 0
-2154 -2132 -2173 -2162 -2147 -2168 -1882 2249 0
-2154 -2132 -2173 -2162 -2147 -2168 -1883 2250 0
-2155 -2132 -2173 -2162 -2147 -2168 -1884 2247 0
-2155 -2132 -2173 -2162 -2147 -2168 -1885 2248 0
-2155 -2132 -2173 -2162 -2147 -2168 -1886 2249 0
-2155 -2132 -2173 -2162 -2147 -2168 -1887 2250 0
-2154 -2131 -2172 -2163 -2147 -2168 -1888 2247 0
-2154 -2131 -2172 -2163 -2147 -2168 -1889 2248 0
-2154 -2131 -2172 -2163 -2147 -2168 -1890 2249 0
-2154 -2131 -2172 -2163 -2147 -2168 -1891 2250 0
-2155 -2131 -2172 -2163 -2147 -2168 -1892 2247 0
-2155 -2131 -2172 -2163 -2147 -2168 -1893 2248 0
-2155 -2131 -2172 -2163 -2147 -2168 -1894 2249 0
-2155 -2131 -2172 -2163 -2147 -2168 -1895 2250 0
-2154 -2132 -2172 -2163 -2147 -2168 -1896 2247 0
-2154 -2132 -2172 -2163 -2147 -2168 -1897 2248 0
-2154 -2132 -2172 -2163 -2147 -2168 -1898 2249 0
-2154 -2132 -2172 -2163 -2147 -2168 -1899 2250 0
-2155 -2132 -2172 -2163 -2147 -2168 -1900 2247 0
-2155 -2132 -2172 -2163 -2147 -2168 -1901 2248 0
-2155 -2132 -2172 -2163 -2147 -2168 -1902 2249 0
-2155 -2132 -2172 -2163 -2147 -2168 -1903 2250 0
-2154 -2131 -2173 -2163 -2147 -2168 -1904 2247 0
-2154 -2131 -2173 -2163 -2147 -2168 -1905 2248 0
-2154 -2131 -2173 -2163 -2147 -2168 -1906 2249 0
-2154 -2131 -2173 -2163 -2147 -2168 -1907 2250 0
-2155 -2131 -2173 -2163 -2147 -2168 -1908 2247 0
-2155 -2131 -2173 -2163 -2147 -2168 -1909 2248 0
-2155 -2131 -2173 -2163 -2147 -2168 -1910 2249 0
-2155 -2131 -2173 -2163 -2147 -2168 -1911 2250 0
-2154 -2132 -2173 -2163 -2147 -2168 -1912 2247 0
-2154 -2132 -2173 -2163 -2147 -2168 -1913 2248 0
-2154 -2132 -2173 -2163 -2147 -2168 -1914 2249 0
-2154 -2132 -2173 -2163 -2147 -2168 -1915 2250 0
-2155 -2132 -2173 -2163 -2147 -2168 -1916 2247 0
-2155 -2132 -2173 -2163 -2147 -2168 -1917 2248 0
-2155 -2132 -2173 -2163 -2147 -2168 -1918 2249 0
-2155 -2132 -2173 -2163 -2147 -2168 -1919 2250 0
-2154 -2162 -2145 -1920 2251 0
-2154 -2162 -2145 -1921 2252 0
-2154 -2162 -2145 -1922 2253 0
-2155 -2162 -2145 -1923 2251 0
-2155 -2162 -2145 -1924 2252 0
-2155 -2162 -2145 -1925 2253 0
-2154 -2163 -2145 -1926 2251 0
-2154 -2163 -2145 -1927 2252 0
-2154 -2163 -2145 -1928 2253 0
-2155 -2163 -2145 -1929 2251 0
-2155 -2163 -2145 -1930 2252 0
-2155 -2163 -2145 -1931 2253 0
-2154 -2162 -2146 -1932 2251 0
-2154 -2162 -2146 -1933 2252 0
-2154 -2162 -2146 -1934 2253 0
-2155 -2162 -2146 -1935 2251 0
-2155 -2162 -2146 -1936 2252 0
-2155 -2162 -2146 -1937 2253 0
-2154 -2163 -2146 -1938 2251 0
-2154 -2163 -2146 -1939 2252 0
-2154 -2163 -2146 -1940 2253 0
-2155 -2163 -2146 -1941 2251 0
-2155 -2163 -2146 -1942 2252 0
-2155 -2163 -2146 -1943 2253 0
-2154 -2162 -2147 -1944 2251 0
-2154 -2162 -2147 -1945 2252 0
-2154 -2162 -2147 -1946 2253 0
-2155 -2162 -2147 -1947 2251 0
-2155 -2162 -2147 -1948 2252 0
-2155 -2162 -2147 -1949 2253 0
-2154 -2163 -2147 -1950 2251 0
-2154 -2163 -2147 -1951 2252 0
-2154 -2163 -2147 -1952 2253 0
-2155 -2163 -2147 -1953 2251 0
-2155 -2163 -2147 -1954 2252 0
-2155 -2163 -2147 -1955 2253 0
-2127 -2145 -1956 2254 0
-2127 -2145 -1957 2255 0
-2128 -2145 -1958 2254 0
-2128 -2145 -1959 2255 0
-2127 -2146 -1960 2254 0
-2127 -2146 -1961 2255 0
-2128 -2146 -1962 2254 0
-2128 -2146 -1963 2255 0
-2127 -2147 -1964 2254 0
-2127 -2147 -1965 2255 0
-2128 -2147 -1966 2254 0
-2128 -2147 -1967 2255 0
-2127 -2145 -2254 -1968 2256 0
-2127 -2145 -2254 -1969 2257 0
-2128 -2145 -2254 -1970 2256 0
-2128 -2145 -2254 -1971 2257 0
-2127 -2146 -2254 -1972 2256 0
-2127 -2146 -2254 -1973 2257 0
-2128 -2146 -2254 -1974 2256 0
-2128 -2146 -2254 -1975 2257 0
-2127 -2147 -2254 -1976 2256 0
-2127 -2147 -2254 -1977 2257 0
-2128 -2147 -2254 -1978 2256 0
-2128 -2147 -2254 -1979 2257 0
-2127 -2145 -2255 -1980 2256 0
-2127 -2145 -2255 -1981 2257 0
-2128 -2145 -2255 -1982 2256 0
-2128 -2145 -2255 -1983 2257 0
-2127 -2146 -2255 -1984 2256 0
-2127 -2146 -2255 -1985 2257 0
-2128 -2146 -2255 -1986 2256 0
-2128 -2146 -2255 -1987 2257 0
-2127 -2147 -2255 -1988 2256 0
-2127 -2147 -2255 -1989 2257 0
-2128 -2147 -2255 -1990 2256 0
-2128 -2147 -2255 -1991 2257 0
-2172 -2131 -1992 2258 0
-2172 -2131 -1993 2259 0
-2173 -2131 -1994 2258 0
-2173 -2131 -1995 2259 0
-2172 -2132 -1996 2258 0
-2172 -2132 -1997 2259 0
-2173 -2132 -1998 2258 0
-2173 -2132 -1999 2259 0
-2172 -2131 -2000 2260 0
-2172 -2131 -2001 2261 0
-2173 -2131 -2002 2260 0
-2173 -2131 -2003 2261 0
-2172 -2132 -2004 2260 0
-2172 -2132 -2005 2261 0
-2173 -2132 -2006 2260 0
-2173 -2132 -2007 2261 0
-2164 -2172 -2131 -2008 2262 0
-2164 -2172 -2131 -2009 2263 0
-2165 -2172 -2131 -2010 2262 0
-2165 -2172 -2131 -2011 2263 0
-2166 -2172 -2131 -2012 2262 0
-2166 -2172 -2131 -2013 2263 0
-2164 -2173 -2131 -2014 2262 0
-2164 -2173 -2131 -2015 2263 0
-2165 -2173 -2131 -2016 2262 0
-2165 -2173 -2131 -2017 2263 0
-2166 -2173 -2131 -2018 2262 0
-2166 -2173 -2131 -2019 2263 0
-2164 -2172 -2132 -2020 2262 0
-2164 -2172 -2132 -2021 2263 0
-2165 -2172 -2132 -2022 2262 0
-2165 -2172 -2132 -2023 2263 0
-2166 -2172 -2132 -2024 2262 0
-2166 -2172 -2132 -2025 2263 0
-2164 -2173 -2132 -2026 2262 0
-2164 -2173 -2132 -2027 2263 0
-2165 -2173 -2132 -2028 2262 0
-2165 -2173 -2132 -2029 2263 0
-2166 -2173 -2132 -2030 2262 0
-2166 -2173 -2132 -2031 2263 0
-2220 -2032 2264 0
-2220 -2033 2265 0
-2221 -2034 2264 0
-2221 -2035 2265 0
-2164 -2036 2266 0
-2164 -2037 2267 0
-2165 -2038 2266 0
-2165 -2039 2267 0
-2166 -2040 2266 0
-2166 -2041 2267 0
-2176 -2042 2268 0
-2176 -2043 2269 0
-2177 -2044 2268 0
-2177 -2045 2269 0
-2178 -2046 2268 0
-2178 -2047 2269 0
-2179 -2048 2268 0
-2179 -2049 2269 0
-2164 -2050 2270 0
-2164 -2051 2271 0
-2164 -2052 2272 0
-2165 -2053 2270 0
-2165 -2054 2271 0
-2165 -2055 2272 0
-2166 -2056 2270 0
-2166 -2057 2271 0
-2166 -2058 2272 0
-2164 -2059 2273 0
-2164 -2060 2274 0
-2165 -2061 2273 0
-2165 -2062 2274 0
-2166 -2063 2273 0
-2166 -2064 2274 0
-2164 -2065 2275 0
-2164 -2066 2276 0
-2165 -2067 2275 0
-2165 -2068 2276 0
-2166 -2069 2275 0
-2166 -2070 2276 0
-2127 -2145 -2071 2277 0
-2127 -2145 -2072 2278 0
-2128 -2145 -2073 2277 0
-2128 -2145 -2074 2278 0
-2127 -2146 -2075 2277 0
-2127 -2146 -2076 2278 0
-2128 -2146 -2077 2277 0
-2128 -2146 -2078 2278 0
-2127 -2147 -2079 2277 0
-2127 -2147 -2080 2278 0
-2128 -2147 -2081 2277 0
-2128 -2147 -2082 2278 0
-2127 -2145 -2083 2279 0
-2127 -2145 -2084 2280 0
-2128 -2145 -2085 2279 0
-2128 -2145 -2086 2280 0
-2127 -2146 -2087 2279 0
-2127 -2146 -2088 2280 0
-2128 -2146 -2089 2279 0
-2128 -2146 -2090 2280 0
-2127 -2147 -2091 2279 0
-2127 -2147 -2092 2280 0
-2128 -2147 -2093 2279 0
-2128 -2147 -2094 2280 0
-2164 -2095 2281 0
-2164 -2096 2282 0
-2165 -2097 2281 0
-2165 -2098 2282 0
-2166 -2099 2281 0
-2166 -2100 2282 0
-2127 -2145 -2101 2283 0
-2127 -2145 -2102 2284 0
-2128 -2145 -2103 2283 0
-2128 -2145 -2104 2284 0
-2127 -2146 -2105 2283 0
-2127 -2146 -2106 2284 0
-2128 -2146 -2107 2283 0
-2128 -2146 -2108 2284 0
-2127 -2147 -2109 2283 0
-2127 -2147 -2110 2284 0
-2128 -2147 -2111 2283 0
-2128 -2147 -2112 2284 0
-2164 -2154 -2113 2285 0
-2164 -2154 -2114 2286 0
-2165 -2154 -2115 2285 0
-2165 -2154 -2116 2286 0
-2166 -2154 -2117 2285 0
-2166 -2154 -2118 2286 0
-2164 -2155 -2119 2285 0
-2164 -2155 -2120 2286 0
-2165 -2155 -2121 2285 0
-2165 -2155 -2122 2286 0
-2166 -2155 -2123 2285 0
-2166 -2155 -2124 2286 0
-2169 0
-2171 0
