p cnf 336 121
c p learn 2 3 4 5 10 13 18 20 29 30 33 39 40 45 48 49 50 59 60 62 63 64 70 75 76 91 93 97 98 104 107 111 114 116 117 119
c p distribution 0.5605521793761845 0.4394478206238155
c p distribution 0.5880992753454708 0.4119007246545292
c p distribution 0.8628101225621455 0.1371898774378545
c p distribution 0.024465081045351167 0.9755349189546488
c p distribution 0.7332623419224193 0.26673765807758065
c p distribution 0.5557602170463427 0.4442397829536573
c p distribution 0.18149138722727265 0.8185086127727274
c p distribution 0.711194696120105 0.288805303879895
c p distribution 0.6723962531678565 0.32760374683214355
c p distribution 0.9007370033177821 0.09926299668221794
c p distribution 0.5591736994592293 0.44082630054077065
c p distribution 0.49277895960250084 0.5072210403974992
c p distribution 0.2839255433534589 0.7160744566465411
c p distribution 0.9253542316333772 0.07464576836662284
c p distribution 0.04532534483194717 0.9546746551680528
c p distribution 0.1399212096621737 0.8600787903378263
c p distribution 0.19449255011611843 0.8055074498838816
c p distribution 0.7106645187493154 0.28933548125068465
c p distribution 0.48345127163026125 0.5165487283697388
c p distribution 0.8774267731456109 0.1225732268543891
c p distribution 0.47952263368659176 0.5204773663134082
c p distribution 0.5681186450403758 0.4318813549596242
c p distribution 0.23435501409731774 0.7656449859026823
c p distribution 0.6832152377618774 0.3167847622381226
c p distribution 0.6648240691322107 0.3351759308677893
c p distribution 0.49337920929278345 0.5066207907072166
c p distribution 0.712052080315615 0.28794791968438505
c p distribution 0.5559620407869102 0.44403795921308975
c p distribution 0.33975627557050403 0.660243724429496
c p distribution 0.6462867329462658 0.3537132670537342
c p distribution 0.7716289248071398 0.22837107519286015
c p distribution 0.9179924749093356 0.08200752509066445
c p distribution 0.8204170797499717 0.1795829202500283
c p distribution 0.5675306914116326 0.4324693085883674
c p distribution 0.6526534949320872 0.34734650506791276
c p distribution 0.19707974239466686 0.8029202576053331
c p distribution 0.3882018014303861 0.6117981985696139
c p distribution 0.7818203552776142 0.21817964472238582
c p distribution 0.3952141475884122 0.6047858524115878
c p distribution 0.2447770460888773 0.7552229539111227
c p distribution 0.8728770849450282 0.12712291505497175
c p distribution 0.3265005018805227 0.6734994981194773
c p distribution 0.007100789116807782 0.9928992108831922
c p distribution 0.6731509756015156 0.3268490243984844
c p distribution 0.04849726794945841 0.9515027320505416
c p distribution 0.3059990948167487 0.6940009051832513
c p distribution 0.4355225554944465 0.5644774445055535
c p distribution 0.08537181459740129 0.9146281854025987
c p distribution 0.9256392193151614 0.07436078068483865
c p distribution 0.3159282488786327 0.6840717511213673
c p distribution 0.2689511212168815 0.7310488787831185
c p distribution 0.3389819466335007 0.6610180533664993
c p distribution 0.5147049088055416 0.48529509119445835
c p distribution 0.9140688108669556 0.08593118913304443
c p distribution 0.055973746907241995 0.944026253092758
c p distribution 0.5060132637345169 0.49398673626548306
c p distribution 0.9800761943483366 0.019923805651663407
c p distribution 0.5276000219082306 0.47239997809176937
c p distribution 0.2860170691116598 0.7139829308883402
c p distribution 0.021314422918410236 0.9786855770815898
c p distribution 0.9243745520730208 0.07562544792697923
c p distribution 0.9361221149861014 0.06387788501389857
c p distribution 0.28197542809851306 0.7180245719014869
c p distribution 0.2749275445259973 0.7250724554740027
c p distribution 0.45679771407140546 0.5432022859285945
c p distribution 0.38062626722997106 0.6193737327700289
c p distribution 0.2494525848523217 0.7505474151476783
c p distribution 0.19478889650573084 0.8052111034942692
c p distribution 0.35114228288222105 0.648857717117779
c p distribution 0.8366787151520575 0.1633212848479425
c p distribution 0.5848921665731319 0.4151078334268681
c p distribution 0.15905171913224048 0.8409482808677595
c p distribution 0.4403258055746456 0.5596741944253544
c p distribution 0.006254312783946614 0.9937456872160534
c p distribution 0.9241022888729483 0.07589771112705168
c p distribution 0.39465379857640936 0.6053462014235906
c p distribution 0.35139523336759404 0.648604766632406
c p distribution 0.6628776886400047 0.33712231135999526
c p distribution 0.8646100080884745 0.13538999191152545
c p distribution 0.8395815423238605 0.1604184576761395
c p distribution 0.8183729997009683 0.18162700029903167
c p distribution 0.4063327224454172 0.5936672775545828
c p distribution 0.03629524836219855 0.9637047516378014
c p distribution 0.2955294436376885 0.7044705563623115
c p distribution 0.9397482166002193 0.060251783399780656
c p distribution 0.6817052611320495 0.31829473886795046
c p distribution 0.3367638212060493 0.6632361787939507
c p distribution 0.9945674055092222 0.00543259449077782
c p distribution 0.7140714966866422 0.28592850331335784
c p distribution 0.13612643506973243 0.8638735649302676
c p distribution 0.13543086946629523 0.8645691305337048
c p distribution 0.07519292279102308 0.9248070772089769
c p distribution 0.8481831703960944 0.15181682960390563
c p distribution 0.37153191013439946 0.6284680898656005
c p distribution 0.4016449178742053 0.5983550821257947
c p distribution 0.6007050554300253 0.3992949445699747
c p distribution 0.5882387195420337 0.41176128045796634
c p distribution 0.9283637918757922 0.07163620812420779
c p distribution 0.547900753395957 0.452099246604043
c p distribution 0.9271076841782657 0.07289231582173428
c p distribution 0.0783135330062773 0.9216864669937227
c p distribution 0.605824416257279 0.394175583742721
c p distribution 0.06030673910068285 0.9396932608993172
c p distribution 0.7553567076076815 0.24464329239231852
c p distribution 0.404066481887419 0.595933518112581
c p distribution 0.15576943405898414 0.8442305659410159
c p distribution 0.38753504382038295 0.612464956179617
c p distribution 0.23236091491524657 0.7676390850847534
c p distribution 0.30334185645517386 0.6966581435448261
c p distribution 0.11602635610395406 0.8839736438960459
c p distribution 0.34439983588420864 0.6556001641157914
c p distribution 0.18252606881238598 0.817473931187614
c p distribution 0.32428436739168776 0.6757156326083122
c p distribution 0.6432037868316114 0.3567962131683886
c p distribution 0.9879815755698664 0.012018424430133567
c p distribution 0.8964516995170606 0.10354830048293939
c p distribution 0.9766437894707936 0.023356210529206445
c p distribution 0.11208549912560839 0.8879145008743916
c p distribution 0.8879971670635609 0.11200283293643909
-239 -1 248 0
-240 -3 267 0
-241 -5 262 0
-242 -7 285 0
-243 -9 284 0
-244 -11 320 0
-245 -13 246 0
-245 -15 247 0
-246 -17 247 0
-247 -19 260 0
-248 -21 249 0
-248 -23 250 0
-249 -25 252 0
-250 -27 251 0
-251 -29 255 0
-252 -31 253 0
-253 -33 254 0
-253 -35 294 0
-254 -37 292 0
-255 -39 253 0
-255 -41 254 0
-255 -43 256 0
-256 -45 323 0
-257 -47 258 0
-257 -49 271 0
-257 -51 273 0
-258 -53 256 0
-258 -55 321 0
-259 -57 258 0
-259 -59 257 0
-259 -61 261 0
-260 -63 259 0
-261 -65 262 0
-261 -67 272 0
-262 -69 263 0
-263 -71 264 0
-263 -73 265 0
-265 -75 266 0
-267 -77 266 0
-268 -79 266 0
-269 -81 268 0
-269 -83 270 0
-270 -85 271 0
-271 -87 272 0
-273 -89 274 0
-274 -91 275 0
-275 -93 276 0
-275 -95 293 0
-276 -97 277 0
-276 -99 325 0
-277 -101 278 0
-279 -103 280 0
-280 -105 281 0
-280 -107 327 0
-281 -109 282 0
-282 -111 295 0
-283 -113 284 0
-284 -115 286 0
-285 -117 283 0
-285 -119 328 0
-286 -121 288 0
-287 -123 299 0
-288 -125 287 0
-289 -127 298 0
-290 -129 286 0
-290 -131 289 0
-291 -133 289 0
-291 -135 292 0
-292 -137 293 0
-292 -139 326 0
-294 -141 291 0
-295 -143 296 0
-295 -145 329 0
-296 -147 297 0
-296 -149 330 0
-298 -151 288 0
-299 -153 301 0
-300 -155 302 0
-301 -157 300 0
-302 -159 303 0
-303 -161 304 0
-304 -163 305 0
-304 -165 312 0
-305 -167 306 0
-305 -169 310 0
-306 -171 307 0
-307 -173 308 0
-307 -175 309 0
-310 -177 311 0
-312 -179 310 0
-312 -181 313 0
-313 -183 314 0
-313 -185 317 0
-314 -187 315 0
-314 -189 316 0
-316 -191 317 0
-316 -193 320 0
-317 -195 318 0
-320 -197 319 0
-320 -199 318 0
-321 -201 322 0
-321 -203 323 0
-322 -205 324 0
-323 -207 324 0
-324 -209 250 0
-325 -211 280 0
-325 -213 326 0
-326 -215 290 0
-327 -217 290 0
-327 -219 328 0
-328 -221 281 0
-329 -223 330 0
-329 -225 299 0
-330 -227 301 0
-331 -229 245 0
-332 -231 239 0
-333 -233 243 0
-334 -235 244 0
-335 -237 241 0
331 0
-264 0