p cnf 351 266
c p learn 2 9 13 18 19 24 32 33 34 35 40 41 43 45 51 70 77 80 81 82 83 84 85 88 89 90 91 92 93 96 98 101 107 108 111 114 120
c p distribution 0.960629632594524 0.03937036740547595
c p distribution 0.2901814653187814 0.7098185346812186
c p distribution 0.7099330886402757 0.2900669113597243
c p distribution 0.01235807283989665 0.9876419271601034
c p distribution 0.2393473745484217 0.7606526254515783
c p distribution 0.8965977746470198 0.10340222535298016
c p distribution 0.5224282016930327 0.4775717983069673
c p distribution 0.2291504476456514 0.7708495523543486
c p distribution 0.41126060196281145 0.5887393980371886
c p distribution 0.820952791212371 0.17904720878762903
c p distribution 0.6360381173542831 0.36396188264571694
c p distribution 0.26354468243715745 0.7364553175628425
c p distribution 0.5018429578830628 0.49815704211693723
c p distribution 0.7951718439862543 0.2048281560137457
c p distribution 0.12202751205795948 0.8779724879420405
c p distribution 0.7527176689829785 0.24728233101702146
c p distribution 0.36151100975969064 0.6384889902403094
c p distribution 0.13327944815227555 0.8667205518477245
c p distribution 0.18683728586640658 0.8131627141335934
c p distribution 0.28170205417839445 0.7182979458216056
c p distribution 0.6565298831648994 0.34347011683510065
c p distribution 0.5897253677370294 0.41027463226297056
c p distribution 0.6652134017742108 0.33478659822578916
c p distribution 0.3697198383423723 0.6302801616576277
c p distribution 0.24953070519383225 0.7504692948061678
c p distribution 0.04769665655047217 0.9523033434495278
c p distribution 0.560665964883582 0.439334035116418
c p distribution 0.18001435717681147 0.8199856428231885
c p distribution 0.41602373812047067 0.5839762618795293
c p distribution 0.10354459451838183 0.8964554054816182
c p distribution 0.410290958963174 0.589709041036826
c p distribution 0.17786837534830036 0.8221316246516996
c p distribution 0.31530531306683895 0.684694686933161
c p distribution 0.348200167281547 0.651799832718453
c p distribution 0.3555993691142736 0.6444006308857264
c p distribution 0.7307206813452078 0.26927931865479215
c p distribution 0.125668224748952 0.874331775251048
c p distribution 0.54133615033321 0.45866384966678997
c p distribution 0.7893794276525079 0.2106205723474921
c p distribution 0.7397355444625784 0.2602644555374216
c p distribution 0.6220890913601235 0.37791090863987653
c p distribution 0.17809895671014975 0.8219010432898503
c p distribution 0.7305581756134836 0.2694418243865164
c p distribution 0.34855506930439684 0.6514449306956032
c p distribution 0.7162692200882987 0.28373077991170126
c p distribution 0.8788454874593145 0.12115451254068554
c p distribution 0.9894403753525411 0.010559624647458854
c p distribution 0.37561457973087486 0.6243854202691251
c p distribution 0.257617739183828 0.742382260816172
c p distribution 0.1420136979661124 0.8579863020338876
c p distribution 0.7732999036914203 0.22670009630857968
c p distribution 0.42597936284928206 0.5740206371507179
c p distribution 0.5430511666210821 0.4569488333789179
c p distribution 0.0655732134754613 0.9344267865245387
c p distribution 0.3455951464372088 0.6544048535627912
c p distribution 0.8600138409351229 0.1399861590648771
c p distribution 0.848624796951917 0.15137520304808305
c p distribution 0.794918878300492 0.20508112169950798
c p distribution 0.03956536302244673 0.9604346369775533
c p distribution 0.9226348620127545 0.07736513798724554
c p distribution 0.28568213454032587 0.7143178654596741
c p distribution 0.2701666738261461 0.7298333261738539
c p distribution 0.13719571524299656 0.8628042847570034
c p distribution 0.5700472656700775 0.42995273432992254
c p distribution 0.5224953304526301 0.4775046695473699
c p distribution 0.5257169824619506 0.47428301753804936
c p distribution 0.8491733729059895 0.1508266270940105
c p distribution 0.8938077953407834 0.10619220465921664
c p distribution 0.4725660515474075 0.5274339484525925
c p distribution 0.04086608829791116 0.9591339117020888
c p distribution 0.6055345836205384 0.39446541637946164
c p distribution 0.9788855954294264 0.021114404570573564
c p distribution 0.06667148198205552 0.9333285180179445
c p distribution 0.17557629222208337 0.8244237077779166
c p distribution 0.8716322398025176 0.12836776019748242
c p distribution 0.02342619025109316 0.9765738097489068
c p distribution 0.8029846886902967 0.1970153113097033
c p distribution 0.11163344452778279 0.8883665554722172
c p distribution 0.19066747325986821 0.8093325267401318
c p distribution 0.8203626377040301 0.17963736229596994
c p distribution 0.018062131960643657 0.9819378680393563
c p distribution 0.42553825425641123 0.5744617457435888
c p distribution 0.6598089746605241 0.34019102533947587
c p distribution 0.3746363196980803 0.6253636803019197
c p distribution 0.8410950233476843 0.15890497665231573
c p distribution 0.7349729497039699 0.26502705029603013
c p distribution 0.6708525314082446 0.32914746859175537
c p distribution 0.14658125026254343 0.8534187497374566
c p distribution 0.3645567931291256 0.6354432068708744
c p distribution 0.5857540384182657 0.4142459615817343
c p distribution 0.2311704490715739 0.7688295509284261
c p distribution 0.43241757765832856 0.5675824223416714
c p distribution 0.13921103475544805 0.860788965244552
c p distribution 0.1199476832112093 0.8800523167887907
c p distribution 0.5981280117258216 0.40187198827417836
c p distribution 0.8663036428006848 0.13369635719931516
c p distribution 0.8942529553684992 0.10574704463150075
c p distribution 0.1378772355764476 0.8621227644235524
c p distribution 0.03391612779283326 0.9660838722071667
c p distribution 0.12476082340585604 0.875239176594144
c p distribution 0.30810789180136544 0.6918921081986346
c p distribution 0.8556944794231864 0.14430552057681356
c p distribution 0.7740318332444747 0.22596816675552533
c p distribution 0.9640663021089235 0.03593369789107648
c p distribution 0.37493765150487823 0.6250623484951218
c p distribution 0.28983019077342764 0.7101698092265724
c p distribution 0.49300875741798866 0.5069912425820113
c p distribution 0.0369110612177902 0.9630889387822098
c p distribution 0.3369376179827416 0.6630623820172584
c p distribution 0.04160564067794881 0.9583943593220512
c p distribution 0.7026447581651485 0.2973552418348515
c p distribution 0.7050764501510786 0.29492354984892144
c p distribution 0.2030044874486272 0.7969955125513728
c p distribution 0.933012647369518 0.06698735263048206
c p distribution 0.0148406445861069 0.9851593554138931
c p distribution 0.3625745336562831 0.6374254663437169
c p distribution 0.7054403628161101 0.2945596371838899
c p distribution 0.2577168597561885 0.7422831402438115
c p distribution 0.7323935883921621 0.26760641160783794
c p distribution 0.03721443047765305 0.962785569522347
c p distribution 0.452992004416359 0.547007995583641
c p distribution 0.2261641304482106 0.7738358695517894
c p distribution 0.1429305380050192 0.8570694619949808
-247 -21 259 0
-247 -127 292 0
-247 -183 314 0
-248 -79 277 0
-248 -1 347 0
-248 -3 329 0
-249 -213 329 0
-249 -173 309 0
-249 -133 293 0
-250 -107 286 0
-250 -215 333 0
-250 -181 313 0
-251 -115 290 0
-251 -189 315 0
-251 -5 335 0
-252 -11 254 0
-252 -95 282 0
-253 -179 313 0
-253 -7 288 0
-254 -9 318 0
-254 -11 252 0
-255 -13 343 0
-255 -155 301 0
-256 -15 258 0
-256 -73 275 0
-257 -17 312 0
-257 -25 259 0
-257 -139 297 0
-258 -15 256 0
-258 -19 309 0
-259 -21 247 0
-259 -23 314 0
-259 -25 257 0
-259 -27 312 0
-260 -29 320 0
-260 -31 279 0
-261 -33 317 0
-261 -33 317 0
-261 -35 284 0
-262 -195 316 0
-262 -37 267 0
-262 -239 344 0
-263 -87 280 0
-263 -39 310 0
-263 -41 283 0
-264 -43 320 0
-265 -45 267 0
-265 -47 307 0
-265 -49 289 0
-265 -49 289 0
-266 -219 334 0
-266 -51 321 0
-267 -45 265 0
-267 -37 262 0
-267 -113 287 0
-268 -53 270 0
-268 -55 290 0
-269 -57 289 0
-269 -59 288 0
-269 -71 274 0
-270 -61 273 0
-270 -53 268 0
-270 -63 294 0
-271 -221 336 0
-271 -65 310 0
-271 -67 283 0
-272 -69 278 0
-272 -99 284 0
-273 -61 270 0
-274 -191 315 0
-274 -71 269 0
-275 -231 341 0
-275 -73 256 0
-276 -75 346 0
-276 -75 346 0
-276 -77 345 0
-277 -79 248 0
-277 -81 325 0
-277 -83 281 0
-278 -85 322 0
-278 -69 272 0
-278 -235 342 0
-279 -31 260 0
-280 -87 263 0
-280 -89 337 0
-280 -91 282 0
-280 -93 306 0
-281 -83 277 0
-282 -95 252 0
-282 -97 336 0
-282 -151 300 0
-282 -91 280 0
-283 -41 263 0
-283 -67 271 0
-283 -161 302 0
-284 -199 317 0
-284 -99 272 0
-284 -105 285 0
-284 -35 261 0
-284 -105 285 0
-285 -101 331 0
-285 -103 308 0
-285 -105 284 0
-285 -105 284 0
-286 -107 250 0
-287 -109 349 0
-287 -111 316 0
-287 -113 267 0
-288 -7 253 0
-288 -59 269 0
-289 -57 269 0
-289 -49 265 0
-289 -49 265 0
-290 -115 251 0
-290 -117 332 0
-290 -55 268 0
-290 -119 322 0
-291 -121 336 0
-291 -123 310 0
-291 -201 318 0
-292 -125 304 0
-292 -127 247 0
-293 -129 329 0
-293 -131 309 0
-293 -133 249 0
-294 -63 270 0
-294 -171 308 0
-295 -135 343 0
-295 -137 338 0
-295 -137 338 0
-296 -147 299 0
-296 -159 302 0
-297 -243 346 0
-297 -139 257 0
-298 -141 321 0
-298 -143 304 0
-298 -145 344 0
-299 -147 296 0
-299 -149 327 0
-300 -151 282 0
-300 -153 349 0
-301 -155 255 0
-301 -157 319 0
-302 -159 296 0
-302 -161 283 0
-303 -163 331 0
-304 -125 292 0
-304 -143 298 0
-305 -165 330 0
-305 -167 319 0
-305 -167 319 0
-306 -93 280 0
-306 -169 327 0
-307 -47 265 0
-308 -103 285 0
-308 -171 294 0
-309 -173 249 0
-309 -131 293 0
-309 -19 258 0
-310 -65 271 0
-310 -39 263 0
-310 -123 291 0
-311 -175 324 0
-311 -177 338 0
-311 -175 324 0
-312 -17 257 0
-312 -225 339 0
-312 -27 259 0
-313 -179 253 0
-313 -181 250 0
-314 -23 259 0
-314 -183 247 0
-314 -227 340 0
-315 -185 332 0
-315 -187 325 0
-315 -189 251 0
-315 -191 274 0
-315 -187 325 0
-315 -193 335 0
-316 -195 262 0
-316 -197 330 0
-316 -111 287 0
-317 -33 261 0
-317 -199 284 0
-317 -33 261 0
-318 -9 254 0
-318 -201 291 0
-319 -229 341 0
-319 -209 326 0
-319 -167 305 0
-319 -157 301 0
-319 -167 305 0
-320 -29 260 0
-320 -43 264 0
-321 -141 298 0
-321 -51 266 0
-321 -203 340 0
-322 -85 278 0
-322 -233 342 0
-322 -119 290 0
-323 -205 324 0
-324 -205 323 0
-324 -175 311 0
-324 -175 311 0
-324 -207 350 0
-325 -81 277 0
-325 -187 315 0
-325 -187 315 0
-326 -209 319 0
-327 -149 299 0
-327 -169 306 0
-328 -211 349 0
-328 -211 349 0
-328 -241 345 0
-329 -129 293 0
-329 -213 249 0
-329 -3 248 0
-330 -165 305 0
-330 -237 344 0
-330 -197 316 0
-331 -101 285 0
-331 -163 303 0
-332 -185 315 0
-332 -117 290 0
-332 -245 348 0
-333 -215 250 0
-333 -217 335 0
-334 -219 266 0
-335 -5 251 0
-335 -193 315 0
-335 -217 333 0
-336 -221 271 0
-336 -121 291 0
-336 -97 282 0
-337 -89 280 0
-338 -223 343 0
-338 -137 295 0
-338 -137 295 0
-338 -177 311 0
-339 -225 312 0
-340 -203 321 0
-340 -227 314 0
-341 -229 319 0
-341 -231 275 0
-342 -233 322 0
-342 -235 278 0
-343 -135 295 0
-343 -13 255 0
-343 -223 338 0
-344 -237 330 0
-344 -239 262 0
-344 -145 298 0
-345 -241 328 0
-345 -77 276 0
-346 -243 297 0
-346 -75 276 0
-346 -75 276 0
-347 -1 248 0
-348 -245 332 0
-349 -211 328 0
-349 -109 287 0
-349 -211 328 0
-349 -153 300 0
-350 -207 324 0
279 0
-320 0